
     Program PWSCF v.7.2 starts on 12Apr2026 at 21:58: 4 

     This program is part of the open-source Quantum ESPRESSO suite
     for quantum simulation of materials; please cite
         "P. Giannozzi et al., J. Phys.:Condens. Matter 21 395502 (2009);
         "P. Giannozzi et al., J. Phys.:Condens. Matter 29 465901 (2017);
         "P. Giannozzi et al., J. Chem. Phys. 152 154105 (2020);
          URL http://www.quantum-espresso.org", 
     in publications or presentations arising from this work. More details at
     http://www.quantum-espresso.org/quote

     Serial version
     3814 MiB available memory on the printing compute node when the environment starts

     Reading input from nscf_band.in

     Program PWSCF v.7.2 starts on 12Apr2026 at 21:58: 4 

     This program is part of the open-source Quantum ESPRESSO suite
     for quantum simulation of materials; please cite
         "P. Giannozzi et al., J. Phys.:Condens. Matter 21 395502 (2009);
         "P. Giannozzi et al., J. Phys.:Condens. Matter 29 465901 (2017);
         "P. Giannozzi et al., J. Chem. Phys. 152 154105 (2020);
          URL http://www.quantum-espresso.org", 
     in publications or presentations arising from this work. More details at
     http://www.quantum-espresso.org/quote

     Serial version
     3810 MiB available memory on the printing compute node when the environment starts

     Reading input from nscf_band.in

     Current dimensions of program PWSCF are:
     Max number of different atomic species (ntypx) = 10
     Max number of k-points (npk) =  40000
     Max angular momentum in pseudopotentials (lmaxx) =  4

     Current dimensions of program PWSCF are:
     Max number of different atomic species (ntypx) = 10
     Max number of k-points (npk) =  40000
     Max angular momentum in pseudopotentials (lmaxx) =  4

     Atomic positions and unit cell read from directory:
     ./tmp/mos2.save/

     Atomic positions and unit cell read from directory:
     ./tmp/mos2.save/
     Atomic positions from file used, from input discarded

     Atomic positions from file used, from input discarded

     Message from routine setup:
     using ibrav=0 with symmetry is DISCOURAGED, use correct ibrav instead

     Message from routine setup:
     using ibrav=0 with symmetry is DISCOURAGED, use correct ibrav instead


     G-vector sticks info
     --------------------
     sticks:   dense  smooth     PW     G-vecs:    dense   smooth      PW
     Sum        1507     595    169               254925    64451   10253

     Using Slab Decomposition



     bravais-lattice index     =            0
     lattice parameter (alat)  =       6.0155  a.u.
     unit-cell volume          =    1026.5532 (a.u.)^3
     number of atoms/cell      =            3
     number of atomic types    =            2

     G-vector sticks info
     --------------------
     sticks:   dense  smooth     PW     G-vecs:    dense   smooth      PW
     Sum        1507     595    169               254925    64451   10253

     Using Slab Decomposition

     number of electrons       =        26.00
     number of Kohn-Sham states=           20
     kinetic-energy cutoff     =      60.0000  Ry
     charge density cutoff     =     600.0000  Ry
     Exchange-correlation=  SLA  PW   PBX  PBC

                           (   1   4   3   4   0   0   0)

     celldm(1)=   6.015463  celldm(2)=   0.000000  celldm(3)=   0.000000
     celldm(4)=   0.000000  celldm(5)=   0.000000  celldm(6)=   0.000000

     crystal axes: (cart. coord. in units of alat)
               a(1) = (   1.000000   0.000000   0.000000 )  
               a(2) = (  -0.500000   0.866025   0.000000 )  

     bravais-lattice index     =            0
               a(3) = (   0.000000   0.000000   5.445573 )  

     reciprocal axes: (cart. coord. in units 2 pi/alat)
     lattice parameter (alat)  =       6.0155  a.u.
     unit-cell volume          =    1026.5532 (a.u.)^3
               b(1) = (  1.000000  0.577350 -0.000000 )  
               b(2) = (  0.000000  1.154701  0.000000 )  
               b(3) = (  0.000000 -0.000000  0.183635 )  
     number of atoms/cell      =            3
     number of atomic types    =            2
     number of electrons       =        26.00
     number of Kohn-Sham states=           20
     kinetic-energy cutoff     =      60.0000  Ry
     charge density cutoff     =     600.0000  Ry
     Exchange-correlation=  SLA  PW   PBX  PBC


     PseudoPot. # 1 for Mo read from file:
     ./mo_pbe_v1.uspp.F.UPF
     MD5 check sum: 30c4dcd161f5d35cd49bb5239c51a633
                           (   1   4   3   4   0   0   0)

     celldm(1)=   6.015463  celldm(2)=   0.000000  celldm(3)=   0.000000
     celldm(4)=   0.000000  celldm(5)=   0.000000  celldm(6)=   0.000000

     crystal axes: (cart. coord. in units of alat)
               a(1) = (   1.000000   0.000000   0.000000 )  
               a(2) = (  -0.500000   0.866025   0.000000 )  
               a(3) = (   0.000000   0.000000   5.445573 )  

     reciprocal axes: (cart. coord. in units 2 pi/alat)
               b(1) = (  1.000000  0.577350 -0.000000 )  
               b(2) = (  0.000000  1.154701  0.000000 )  
               b(3) = (  0.000000 -0.000000  0.183635 )  

     Pseudo is Ultrasoft + core correction, Zval = 14.0
     Generated by new atomic code, or converted to UPF format
     Using radial grid of  889 points,  6 beta functions with: 
                l(1) =   0
                l(2) =   0
                l(3) =   1
                l(4) =   1
                l(5) =   2
                l(6) =   2

     PseudoPot. # 1 for Mo read from file:
     ./mo_pbe_v1.uspp.F.UPF
     MD5 check sum: 30c4dcd161f5d35cd49bb5239c51a633
     Pseudo is Ultrasoft + core correction, Zval = 14.0
     Q(r) pseudized with  6 coefficients,  rinner =    1.000   1.000   1.000
                                                       1.000   1.000

     Generated by new atomic code, or converted to UPF format
     Using radial grid of  889 points,  6 beta functions with: 
                l(1) =   0
                l(2) =   0
     PseudoPot. # 2 for S  read from file:
     ./s_pbe_v1.4.uspp.F.UPF
     MD5 check sum: 88d86576ff6df21479756cfb9bdac1df
     Pseudo is Ultrasoft + core correction, Zval =  6.0
     Generated by new atomic code, or converted to UPF format
                l(3) =   1
                l(4) =   1
                l(5) =   2
                l(6) =   2
     Using radial grid of  907 points,  6 beta functions with: 
                l(1) =   0
                l(2) =   0
                l(3) =   1
                l(4) =   1
                l(5) =   2
     Q(r) pseudized with  6 coefficients,  rinner =    1.000   1.000   1.000
                                                       1.000   1.000

                l(6) =   2
     Q(r) pseudized with  8 coefficients,  rinner =    1.300   1.300   1.300
                                                       1.300   1.300

     atomic species   valence    mass     pseudopotential
     PseudoPot. # 2 for S  read from file:
     ./s_pbe_v1.4.uspp.F.UPF
     MD5 check sum: 88d86576ff6df21479756cfb9bdac1df
     Pseudo is Ultrasoft + core correction, Zval =  6.0
     Generated by new atomic code, or converted to UPF format
     Using radial grid of  907 points,  6 beta functions with: 
                l(1) =   0
                l(2) =   0
                l(3) =   1
                l(4) =   1
                l(5) =   2
                l(6) =   2
        Mo            14.00    95.94000     Mo( 1.00)
        S              6.00    32.06000     S ( 1.00)

     12 Sym. Ops. (no inversion) found



     Q(r) pseudized with  8 coefficients,  rinner =    1.300   1.300   1.300
                                                       1.300   1.300

     atomic species   valence    mass     pseudopotential
        Mo            14.00    95.94000     Mo( 1.00)
        S              6.00    32.06000     S ( 1.00)

     12 Sym. Ops. (no inversion) found


   Cartesian axes

     site n.     atom                  positions (alat units)
         1           Mo  tau(   1) = (   0.0000000   0.0000000   2.7227867  )
         2           S   tau(   2) = (  -0.0000000   0.5773503   3.2135870  )
         3           S   tau(   3) = (   0.0000000   0.5773503   2.2319864  )

   Cartesian axes

     site n.     atom                  positions (alat units)
         1           Mo  tau(   1) = (   0.0000000   0.0000000   2.7227867  )
         2           S   tau(   2) = (  -0.0000000   0.5773503   3.2135870  )
         3           S   tau(   3) = (   0.0000000   0.5773503   2.2319864  )

     number of k points=   121

     number of k points=   121

     Number of k-points >= 100: set verbosity='high' to print them.


     Number of k-points >= 100: set verbosity='high' to print them.

     Dense  grid:   254925 G-vectors     FFT dimensions: (  48,  48, 256)

     Smooth grid:    64451 G-vectors     FFT dimensions: (  30,  30, 162)
     Dense  grid:   254925 G-vectors     FFT dimensions: (  48,  48, 256)

     Smooth grid:    64451 G-vectors     FFT dimensions: (  30,  30, 162)

     Estimated max dynamical RAM per process >     826.52 MB

     Estimated max dynamical RAM per process >     826.52 MB

     The potential is recalculated from file :
     ./tmp/mos2.save/charge-density


     The potential is recalculated from file :
     ./tmp/mos2.save/charge-density


     negative rho (up, down):  2.046E-04 0.000E+00

     negative rho (up, down):  2.046E-04 0.000E+00
     Starting wfcs are   21 randomized atomic wfcs

     Band Structure Calculation
     Davidson diagonalization with overlap
     Starting wfcs are   21 randomized atomic wfcs

     Band Structure Calculation
     Davidson diagonalization with overlap

     ethr =  3.85E-11,  avg # of iterations = 56.7

     total cpu time spent up to now is      593.8 secs

     End of band structure calculation

     Number of k-points >= 100: set verbosity='high' to print the bands.

     Writing all to output data dir ./tmp/mos2.save/

     init_run     :      4.17s CPU      5.04s WALL (       1 calls)
     electrons    :    587.32s CPU    588.56s WALL (       1 calls)

     Called by init_run:
     wfcinit      :      0.00s CPU      0.00s WALL (       1 calls)
     potinit      :      0.58s CPU      0.66s WALL (       1 calls)
     hinit0       :      2.46s CPU      2.49s WALL (       1 calls)

     Called by electrons:
     c_bands      :    587.32s CPU    588.56s WALL (       1 calls)
     v_of_rho     :      0.29s CPU      0.36s WALL (       1 calls)
     newd         :      1.00s CPU      1.73s WALL (       1 calls)

     Called by c_bands:
     init_us_2    :      0.37s CPU      0.39s WALL (     121 calls)
     init_us_2:cp :      0.37s CPU      0.39s WALL (     121 calls)
     cegterg      :    569.27s CPU    570.19s WALL (     396 calls)

     Called by *egterg:
     cdiaghg      :      4.00s CPU      4.02s WALL (    6981 calls)
     h_psi        :    343.72s CPU    344.44s WALL (    7377 calls)
     s_psi        :     47.68s CPU     47.73s WALL (    7377 calls)
     g_psi        :      2.04s CPU      2.06s WALL (    6860 calls)

     Called by h_psi:
     h_psi:calbec :     50.19s CPU     50.24s WALL (    7377 calls)
     vloc_psi     :    245.64s CPU    246.26s WALL (    7377 calls)
     add_vuspsi   :     46.70s CPU     46.76s WALL (    7377 calls)

     General routines
     calbec       :     50.14s CPU     50.21s WALL (    7377 calls)
     fft          :      0.69s CPU      0.69s WALL (      13 calls)
     ffts         :      0.26s CPU      0.27s WALL (       1 calls)
     fftw         :    164.96s CPU    165.35s WALL (  153406 calls)
     interpolate  :      0.27s CPU      0.28s WALL (       1 calls)
     davcio       :      0.04s CPU      0.34s WALL (     242 calls)


     PWSCF        :   9m51.85s CPU   9m54.39s WALL


   This run was terminated on:  22: 7:59  12Apr2026            

=------------------------------------------------------------------------------=
   JOB DONE.
=------------------------------------------------------------------------------=

     ethr =  3.85E-11,  avg # of iterations = 56.7

     total cpu time spent up to now is      599.8 secs

     End of band structure calculation

     Number of k-points >= 100: set verbosity='high' to print the bands.

     Writing all to output data dir ./tmp/mos2.save/

     init_run     :      4.20s CPU      5.04s WALL (       1 calls)
     electrons    :    593.25s CPU    594.57s WALL (       1 calls)

     Called by init_run:
     wfcinit      :      0.00s CPU      0.00s WALL (       1 calls)
     potinit      :      0.57s CPU      0.64s WALL (       1 calls)
     hinit0       :      2.46s CPU      2.49s WALL (       1 calls)

     Called by electrons:
     c_bands      :    593.25s CPU    594.57s WALL (       1 calls)
     v_of_rho     :      0.28s CPU      0.34s WALL (       1 calls)
     newd         :      1.01s CPU      1.75s WALL (       1 calls)

     Called by c_bands:
     init_us_2    :      0.37s CPU      0.39s WALL (     121 calls)
     init_us_2:cp :      0.37s CPU      0.39s WALL (     121 calls)
     cegterg      :    575.00s CPU    576.17s WALL (     396 calls)

     Called by *egterg:
     cdiaghg      :      3.99s CPU      4.01s WALL (    6981 calls)
     h_psi        :    348.43s CPU    349.35s WALL (    7377 calls)
     s_psi        :     47.95s CPU     48.01s WALL (    7377 calls)
     g_psi        :      2.06s CPU      2.07s WALL (    6860 calls)

     Called by h_psi:
     h_psi:calbec :     51.27s CPU     51.34s WALL (    7377 calls)
     vloc_psi     :    249.00s CPU    249.80s WALL (    7377 calls)
     add_vuspsi   :     46.94s CPU     47.00s WALL (    7377 calls)

     General routines
     calbec       :     51.22s CPU     51.30s WALL (    7377 calls)
     fft          :      0.69s CPU      0.69s WALL (      13 calls)
     ffts         :      0.27s CPU      0.27s WALL (       1 calls)
     fftw         :    165.51s CPU    166.02s WALL (  153406 calls)
     interpolate  :      0.28s CPU      0.28s WALL (       1 calls)
     davcio       :      0.05s CPU      0.15s WALL (     242 calls)


     PWSCF        :   9m57.76s CPU  10m 0.39s WALL


   This run was terminated on:  22: 8: 5  12Apr2026            

=------------------------------------------------------------------------------=
   JOB DONE.
=------------------------------------------------------------------------------=
