
     Program PWSCF v.7.2 starts on 12Apr2026 at 22:29: 8 

     This program is part of the open-source Quantum ESPRESSO suite
     for quantum simulation of materials; please cite
         "P. Giannozzi et al., J. Phys.:Condens. Matter 21 395502 (2009);
         "P. Giannozzi et al., J. Phys.:Condens. Matter 29 465901 (2017);
         "P. Giannozzi et al., J. Chem. Phys. 152 154105 (2020);
          URL http://www.quantum-espresso.org", 
     in publications or presentations arising from this work. More details at
     http://www.quantum-espresso.org/quote

     Serial version
     3215 MiB available memory on the printing compute node when the environment starts

     Reading input from nscf_dos.in

     Current dimensions of program PWSCF are:
     Max number of different atomic species (ntypx) = 10
     Max number of k-points (npk) =  40000
     Max angular momentum in pseudopotentials (lmaxx) =  4

     Program PWSCF v.7.2 starts on 12Apr2026 at 22:29: 8 

     This program is part of the open-source Quantum ESPRESSO suite
     for quantum simulation of materials; please cite
         "P. Giannozzi et al., J. Phys.:Condens. Matter 21 395502 (2009);
         "P. Giannozzi et al., J. Phys.:Condens. Matter 29 465901 (2017);
         "P. Giannozzi et al., J. Chem. Phys. 152 154105 (2020);
          URL http://www.quantum-espresso.org", 
     in publications or presentations arising from this work. More details at
     http://www.quantum-espresso.org/quote

     Serial version
     3211 MiB available memory on the printing compute node when the environment starts

     Reading input from nscf_dos.in

     Atomic positions and unit cell read from directory:
     ./tmp/mos2.save/

     Current dimensions of program PWSCF are:
     Max number of different atomic species (ntypx) = 10
     Max number of k-points (npk) =  40000
     Max angular momentum in pseudopotentials (lmaxx) =  4

     Atomic positions and unit cell read from directory:
     ./tmp/mos2.save/
     Atomic positions from file used, from input discarded

     Atomic positions from file used, from input discarded

     Message from routine setup:
     using ibrav=0 with symmetry is DISCOURAGED, use correct ibrav instead

     Message from routine setup:
     using ibrav=0 with symmetry is DISCOURAGED, use correct ibrav instead


     G-vector sticks info
     --------------------
     sticks:   dense  smooth     PW     G-vecs:    dense   smooth      PW
     Sum        1507     595    169               254925    64451   10155

     Using Slab Decomposition



     bravais-lattice index     =            0
     lattice parameter (alat)  =       6.0155  a.u.
     unit-cell volume          =    1026.5532 (a.u.)^3
     number of atoms/cell      =            3
     number of atomic types    =            2
     number of electrons       =        26.00
     number of Kohn-Sham states=           20
     kinetic-energy cutoff     =      60.0000  Ry
     charge density cutoff     =     600.0000  Ry
     Exchange-correlation=  SLA  PW   PBX  PBC
                           (   1   4   3   4   0   0   0)

     celldm(1)=   6.015463  celldm(2)=   0.000000  celldm(3)=   0.000000
     celldm(4)=   0.000000  celldm(5)=   0.000000  celldm(6)=   0.000000

     crystal axes: (cart. coord. in units of alat)
               a(1) = (   1.000000   0.000000   0.000000 )  
               a(2) = (  -0.500000   0.866025   0.000000 )  
               a(3) = (   0.000000   0.000000   5.445573 )  

     reciprocal axes: (cart. coord. in units 2 pi/alat)
               b(1) = (  1.000000  0.577350 -0.000000 )  
               b(2) = (  0.000000  1.154701  0.000000 )  
               b(3) = (  0.000000 -0.000000  0.183635 )  


     PseudoPot. # 1 for Mo read from file:
     ./mo_pbe_v1.uspp.F.UPF
     MD5 check sum: 30c4dcd161f5d35cd49bb5239c51a633
     Pseudo is Ultrasoft + core correction, Zval = 14.0
     Generated by new atomic code, or converted to UPF format
     Using radial grid of  889 points,  6 beta functions with: 
                l(1) =   0
                l(2) =   0
                l(3) =   1
                l(4) =   1
                l(5) =   2
                l(6) =   2
     Q(r) pseudized with  6 coefficients,  rinner =    1.000   1.000   1.000
                                                       1.000   1.000

     PseudoPot. # 2 for S  read from file:
     ./s_pbe_v1.4.uspp.F.UPF
     MD5 check sum: 88d86576ff6df21479756cfb9bdac1df
     Pseudo is Ultrasoft + core correction, Zval =  6.0
     Generated by new atomic code, or converted to UPF format
     Using radial grid of  907 points,  6 beta functions with: 
                l(1) =   0
                l(2) =   0
                l(3) =   1
                l(4) =   1
                l(5) =   2
                l(6) =   2
     Q(r) pseudized with  8 coefficients,  rinner =    1.300   1.300   1.300
                                                       1.300   1.300

     atomic species   valence    mass     pseudopotential
        Mo            14.00    95.94000     Mo( 1.00)
        S              6.00    32.06000     S ( 1.00)

     12 Sym. Ops. (no inversion) found



   Cartesian axes

     site n.     atom                  positions (alat units)
         1           Mo  tau(   1) = (   0.0000000   0.0000000   2.7227867  )
         2           S   tau(   2) = (  -0.0000000   0.5773503   3.2135870  )
         3           S   tau(   3) = (   0.0000000   0.5773503   2.2319864  )

     number of k points=    30
                       cart. coord. in units 2pi/alat
        k(    1) = (   0.0000000   0.0000000   0.0000000), wk =   0.0078125
        k(    2) = (   0.0000000   0.0721688   0.0000000), wk =   0.0468750
        k(    3) = (   0.0000000   0.1443376   0.0000000), wk =   0.0468750
        k(    4) = (   0.0000000   0.2165064   0.0000000), wk =   0.0468750
        k(    5) = (   0.0000000   0.2886751   0.0000000), wk =   0.0468750
        k(    6) = (   0.0000000   0.3608439   0.0000000), wk =   0.0468750
        k(    7) = (   0.0000000   0.4330127   0.0000000), wk =   0.0468750
        k(    8) = (   0.0000000   0.5051815   0.0000000), wk =   0.0468750
        k(    9) = (   0.0000000  -0.5773503   0.0000000), wk =   0.0234375
        k(   10) = (   0.0625000   0.1082532   0.0000000), wk =   0.0468750
        k(   11) = (   0.0625000   0.1804220   0.0000000), wk =   0.0937500
        k(   12) = (   0.0625000   0.2525907   0.0000000), wk =   0.0937500
        k(   13) = (   0.0625000   0.3247595   0.0000000), wk =   0.0937500
        k(   14) = (   0.0625000   0.3969283   0.0000000), wk =   0.0937500
        k(   15) = (   0.0625000   0.4690971   0.0000000), wk =   0.0937500
        k(   16) = (   0.0625000   0.5412659   0.0000000), wk =   0.0937500
        k(   17) = (   0.1250000   0.2165064   0.0000000), wk =   0.0468750
        k(   18) = (   0.1250000   0.2886751   0.0000000), wk =   0.0937500
        k(   19) = (   0.1250000   0.3608439   0.0000000), wk =   0.0937500
        k(   20) = (   0.1250000   0.4330127   0.0000000), wk =   0.0937500
        k(   21) = (   0.1250000   0.5051815   0.0000000), wk =   0.0937500
        k(   22) = (   0.1250000   0.5773503   0.0000000), wk =   0.0468750
        k(   23) = (   0.1875000   0.3247595   0.0000000), wk =   0.0468750
        k(   24) = (   0.1875000   0.3969283   0.0000000), wk =   0.0937500
        k(   25) = (   0.1875000   0.4690971   0.0000000), wk =   0.0937500
        k(   26) = (   0.1875000   0.5412659   0.0000000), wk =   0.0937500
        k(   27) = (   0.2500000   0.4330127   0.0000000), wk =   0.0468750
        k(   28) = (   0.2500000   0.5051815   0.0000000), wk =   0.0937500
        k(   29) = (   0.2500000   0.5773503   0.0000000), wk =   0.0468750
        k(   30) = (   0.3125000   0.5412659   0.0000000), wk =   0.0468750

     Dense  grid:   254925 G-vectors     FFT dimensions: (  48,  48, 256)

     Smooth grid:    64451 G-vectors     FFT dimensions: (  30,  30, 162)

     Estimated max dynamical RAM per process >     826.52 MB

     G-vector sticks info
     --------------------
     sticks:   dense  smooth     PW     G-vecs:    dense   smooth      PW
     Sum        1507     595    169               254925    64451   10155

     Using Slab Decomposition



     bravais-lattice index     =            0
     lattice parameter (alat)  =       6.0155  a.u.
     unit-cell volume          =    1026.5532 (a.u.)^3
     number of atoms/cell      =            3
     number of atomic types    =            2
     number of electrons       =        26.00
     number of Kohn-Sham states=           20
     kinetic-energy cutoff     =      60.0000  Ry
     charge density cutoff     =     600.0000  Ry
     Exchange-correlation=  SLA  PW   PBX  PBC
                           (   1   4   3   4   0   0   0)

     celldm(1)=   6.015463  celldm(2)=   0.000000  celldm(3)=   0.000000
     celldm(4)=   0.000000  celldm(5)=   0.000000  celldm(6)=   0.000000

     crystal axes: (cart. coord. in units of alat)
               a(1) = (   1.000000   0.000000   0.000000 )  
               a(2) = (  -0.500000   0.866025   0.000000 )  
               a(3) = (   0.000000   0.000000   5.445573 )  

     reciprocal axes: (cart. coord. in units 2 pi/alat)
               b(1) = (  1.000000  0.577350 -0.000000 )  
               b(2) = (  0.000000  1.154701  0.000000 )  
               b(3) = (  0.000000 -0.000000  0.183635 )  


     PseudoPot. # 1 for Mo read from file:
     ./mo_pbe_v1.uspp.F.UPF
     MD5 check sum: 30c4dcd161f5d35cd49bb5239c51a633
     Pseudo is Ultrasoft + core correction, Zval = 14.0
     Generated by new atomic code, or converted to UPF format
     Using radial grid of  889 points,  6 beta functions with: 
                l(1) =   0
                l(2) =   0
                l(3) =   1
                l(4) =   1
                l(5) =   2
                l(6) =   2
     Q(r) pseudized with  6 coefficients,  rinner =    1.000   1.000   1.000
                                                       1.000   1.000

     PseudoPot. # 2 for S  read from file:
     ./s_pbe_v1.4.uspp.F.UPF
     MD5 check sum: 88d86576ff6df21479756cfb9bdac1df
     Pseudo is Ultrasoft + core correction, Zval =  6.0
     Generated by new atomic code, or converted to UPF format
     Using radial grid of  907 points,  6 beta functions with: 
                l(1) =   0
                l(2) =   0
                l(3) =   1
                l(4) =   1
                l(5) =   2
                l(6) =   2
     Q(r) pseudized with  8 coefficients,  rinner =    1.300   1.300   1.300
                                                       1.300   1.300

     atomic species   valence    mass     pseudopotential
        Mo            14.00    95.94000     Mo( 1.00)
        S              6.00    32.06000     S ( 1.00)

     12 Sym. Ops. (no inversion) found



   Cartesian axes

     site n.     atom                  positions (alat units)
         1           Mo  tau(   1) = (   0.0000000   0.0000000   2.7227867  )
         2           S   tau(   2) = (  -0.0000000   0.5773503   3.2135870  )
         3           S   tau(   3) = (   0.0000000   0.5773503   2.2319864  )

     number of k points=    30
                       cart. coord. in units 2pi/alat
        k(    1) = (   0.0000000   0.0000000   0.0000000), wk =   0.0078125
        k(    2) = (   0.0000000   0.0721688   0.0000000), wk =   0.0468750
        k(    3) = (   0.0000000   0.1443376   0.0000000), wk =   0.0468750
        k(    4) = (   0.0000000   0.2165064   0.0000000), wk =   0.0468750
        k(    5) = (   0.0000000   0.2886751   0.0000000), wk =   0.0468750
        k(    6) = (   0.0000000   0.3608439   0.0000000), wk =   0.0468750
        k(    7) = (   0.0000000   0.4330127   0.0000000), wk =   0.0468750
        k(    8) = (   0.0000000   0.5051815   0.0000000), wk =   0.0468750
        k(    9) = (   0.0000000  -0.5773503   0.0000000), wk =   0.0234375
        k(   10) = (   0.0625000   0.1082532   0.0000000), wk =   0.0468750
        k(   11) = (   0.0625000   0.1804220   0.0000000), wk =   0.0937500
        k(   12) = (   0.0625000   0.2525907   0.0000000), wk =   0.0937500
        k(   13) = (   0.0625000   0.3247595   0.0000000), wk =   0.0937500
        k(   14) = (   0.0625000   0.3969283   0.0000000), wk =   0.0937500
        k(   15) = (   0.0625000   0.4690971   0.0000000), wk =   0.0937500
        k(   16) = (   0.0625000   0.5412659   0.0000000), wk =   0.0937500
        k(   17) = (   0.1250000   0.2165064   0.0000000), wk =   0.0468750
        k(   18) = (   0.1250000   0.2886751   0.0000000), wk =   0.0937500
        k(   19) = (   0.1250000   0.3608439   0.0000000), wk =   0.0937500
        k(   20) = (   0.1250000   0.4330127   0.0000000), wk =   0.0937500
        k(   21) = (   0.1250000   0.5051815   0.0000000), wk =   0.0937500
        k(   22) = (   0.1250000   0.5773503   0.0000000), wk =   0.0468750
        k(   23) = (   0.1875000   0.3247595   0.0000000), wk =   0.0468750
        k(   24) = (   0.1875000   0.3969283   0.0000000), wk =   0.0937500
        k(   25) = (   0.1875000   0.4690971   0.0000000), wk =   0.0937500
        k(   26) = (   0.1875000   0.5412659   0.0000000), wk =   0.0937500
        k(   27) = (   0.2500000   0.4330127   0.0000000), wk =   0.0468750
        k(   28) = (   0.2500000   0.5051815   0.0000000), wk =   0.0937500
        k(   29) = (   0.2500000   0.5773503   0.0000000), wk =   0.0468750
        k(   30) = (   0.3125000   0.5412659   0.0000000), wk =   0.0468750

     Dense  grid:   254925 G-vectors     FFT dimensions: (  48,  48, 256)

     Smooth grid:    64451 G-vectors     FFT dimensions: (  30,  30, 162)

     Estimated max dynamical RAM per process >     826.52 MB

     The potential is recalculated from file :
     ./tmp/mos2.save/charge-density


     The potential is recalculated from file :
     ./tmp/mos2.save/charge-density


     negative rho (up, down):  2.046E-04 0.000E+00

     negative rho (up, down):  2.046E-04 0.000E+00
     Starting wfcs are   21 randomized atomic wfcs

     Band Structure Calculation
     Davidson diagonalization with overlap
     Starting wfcs are   21 randomized atomic wfcs

     Band Structure Calculation
     Davidson diagonalization with overlap

     ethr =  3.85E-11,  avg # of iterations = 57.1

     total cpu time spent up to now is      138.2 secs

     End of band structure calculation

          k = 0.0000 0.0000 0.0000 (  8091 PWs)   bands (ev):

   -61.1060 -35.2377 -35.0331 -35.0331 -14.2921 -12.9875  -5.8098  -2.8179
    -2.8179  -1.9800  -1.7145  -1.7145  -0.2105   2.5471   2.5471   2.7963
     2.7963   5.0641   5.4356   5.9093

          k = 0.0000 0.0722 0.0000 (  8077 PWs)   bands (ev):

   -61.1046 -35.2349 -35.0475 -35.0364 -14.2343 -12.9637  -5.7432  -2.9500
    -2.7575  -2.3175  -1.8086  -1.4624  -0.2378   2.4621   2.6288   2.6511
     2.7294   5.1643   5.5119   6.1230

          k = 0.0000 0.1443 0.0000 (  8079 PWs)   bands (ev):

   -61.1005 -35.2269 -35.0885 -35.0457 -14.0661 -12.8946  -5.5595  -3.2902
    -2.7900  -2.5832  -2.0527  -1.2822  -0.3486   2.2853   2.3450   2.5560
     2.9171   5.4162   5.7361   6.5251

          k = 0.0000 0.2165 0.0000 (  8085 PWs)   bands (ev):

   -61.0945 -35.2148 -35.1493 -35.0596 -13.8026 -12.7865  -5.3215  -3.7056
    -3.2803  -2.3688  -2.3170  -1.3273  -0.5940   2.0225   2.3390   2.4098
     3.2491   5.7860   6.0968   6.9093

          k = 0.0000 0.2887 0.0000 (  8083 PWs)   bands (ev):

   -61.0874 -35.2202 -35.2006 -35.0760 -13.4702 -12.6512  -5.1891  -4.0142
    -3.7705  -2.6897  -1.9967  -1.5307  -0.9261   1.9626   2.1443   2.6865
     3.5622   6.2596   6.5704   7.3350

          k = 0.0000 0.3608 0.0000 (  8079 PWs)   bands (ev):

   -61.0803 -35.2904 -35.1863 -35.0924 -13.1077 -12.5058  -5.3393  -4.2337
    -4.0945  -2.9713  -1.7604  -1.6757  -1.1535   2.0209   2.0686   3.0555
     3.8081   6.7879   7.0926   7.7393

          k = 0.0000 0.4330 0.0000 (  8037 PWs)   bands (ev):

   -61.0742 -35.3493 -35.1741 -35.1062 -12.7690 -12.3732  -5.6320  -4.6236
    -4.1353  -3.1870  -1.9379  -1.4113  -1.1258   1.9856   2.2577   3.3834
     3.9730   6.9007   7.4563   7.4620

          k = 0.0000 0.5052 0.0000 (  8034 PWs)   bands (ev):

   -61.0702 -35.3883 -35.1660 -35.1154 -12.5215 -12.2789  -5.8730  -4.8862
    -4.2215  -3.3216  -2.0423  -1.2445  -0.9405   2.0084   2.4498   3.5862
     4.0641   6.2253   7.5942   7.8171

          k = 0.0000-0.5774 0.0000 (  8032 PWs)   bands (ev):

   -61.0688 -35.4020 -35.1632 -35.1186 -12.4296 -12.2446  -5.9645  -4.9791
    -4.2658  -3.3673  -2.0761  -1.1888  -0.8389   2.0272   2.5390   3.6503
     4.0928   5.9281   7.6532   7.9999

          k = 0.0625 0.1083 0.0000 (  8099 PWs)   bands (ev):

   -61.1019 -35.2295 -35.0748 -35.0431 -14.1213 -12.9172  -5.6175  -3.1840
    -2.6466  -2.6422  -2.0171  -1.2789  -0.3067   2.3433   2.3827   2.6024
     2.8521   5.3377   5.6623   6.4249

          k = 0.0625 0.1804 0.0000 (  8104 PWs)   bands (ev):

   -61.0968 -35.2194 -35.1245 -35.0558 -13.9053 -12.8284  -5.4011  -3.5555
    -3.0612  -2.4314  -2.3716  -1.1913  -0.4871   2.0882   2.2838   2.4061
     3.1786   5.6466   5.9557   6.7851

          k = 0.0625 0.2526 0.0000 (  8085 PWs)   bands (ev):

   -61.0903 -35.2063 -35.1889 -35.0725 -13.6068 -12.7062  -5.1977  -3.9109
    -3.5199  -2.7319  -2.1664  -1.2983  -0.7829   1.9101   2.2368   2.4334
     3.5192   6.0728   6.3767   7.1918

          k = 0.0625 0.3248 0.0000 (  8086 PWs)   bands (ev):

   -61.0831 -35.2578 -35.1920 -35.0906 -13.2578 -12.5645  -5.2096  -4.0661
    -4.0055  -3.0136  -1.9201  -1.5273  -1.0465   1.8734   2.1711   2.7531
     3.7977   6.5910   6.8903   7.6558

          k = 0.0625 0.3969 0.0000 (  8056 PWs)   bands (ev):

   -61.0765 -35.3208 -35.1788 -35.1071 -12.9044 -12.4234  -5.4538  -4.4591
    -4.0811  -3.2034  -1.7687  -1.7550  -1.0702   1.9267   2.2284   3.1227
     3.9695   7.0791   7.3998   7.6086

          k = 0.0625 0.4691 0.0000 (  8045 PWs)   bands (ev):

   -61.0715 -35.3686 -35.1687 -35.1198 -12.6070 -12.3075  -5.7216  -4.8096
    -4.1523  -3.3167  -1.9542  -1.6153  -0.9029   2.0032   2.3784   3.4482
     4.0147   6.6121   7.7232   7.7672

          k = 0.0625 0.5413 0.0000 (  8034 PWs)   bands (ev):

   -61.0688 -35.3943 -35.1632 -35.1266 -12.4337 -12.2415  -5.8852  -5.0006
    -4.2333  -3.3690  -2.0526  -1.5186  -0.7393   2.0385   2.5358   3.6779
     3.9580   6.0735   7.9051   8.1202

          k = 0.1250 0.2165 0.0000 (  8093 PWs)   bands (ev):

   -61.0913 -35.2083 -35.1759 -35.0733 -13.6538 -12.7250  -5.2045  -3.8591
    -3.3563  -2.8706  -2.2437  -1.1388  -0.7253   1.8832   2.2685   2.2780
     3.5371   6.0135   6.3121   7.1564

          k = 0.1250 0.2887 0.0000 (  8086 PWs)   bands (ev):

   -61.0847 -35.2348 -35.1951 -35.0950 -13.3371 -12.5949  -5.1238  -4.0284
    -3.7724  -3.2369  -2.1226  -1.2533  -0.9647   1.7596   2.2392   2.4486
     3.8538   6.4957   6.7846   7.6156

          k = 0.1250 0.3608 0.0000 (  8075 PWs)   bands (ev):

   -61.0781 -35.2927 -35.1819 -35.1170 -12.9934 -12.4545  -5.2696  -4.2941
    -4.0090  -3.3767  -2.1467  -1.4948  -1.0216   1.8059   2.2794   2.7546
     4.0579   7.0425   7.3295   8.0846

          k = 0.1250 0.4330 0.0000 (  8050 PWs)   bands (ev):

   -61.0725 -35.3413 -35.1707 -35.1357 -12.6746 -12.3258  -5.4972  -4.7480
    -4.0281  -3.4054  -2.1726  -1.7660  -0.8926   1.9705   2.3585   3.0942
     4.1198   7.1054   7.8371   7.8598

          k = 0.1250 0.5052 0.0000 (  8041 PWs)   bands (ev):

   -61.0688 -35.3735 -35.1632 -35.1483 -12.4435 -12.2339  -5.6739  -5.0495
    -4.1353  -3.3850  -2.1299  -1.9792  -0.6976   2.0275   2.5513   3.3873
     4.0564   6.4575   8.3127   8.3304

          k = 0.1250 0.5774 0.0000 (  8028 PWs)   bands (ev):

   -61.0675 -35.3848 -35.1606 -35.1527 -12.3582 -12.2004  -5.7395  -5.1550
    -4.1931  -3.3687  -2.1041  -2.0617  -0.5973   2.0070   2.6798   3.5297
     3.9844   6.1709   8.6285   8.6384

          k = 0.1875 0.3248 0.0000 (  8071 PWs)   bands (ev):

   -61.0786 -35.2801 -35.1830 -35.1233 -13.0244 -12.4649  -5.1885  -4.2031
    -3.9706  -3.4888  -2.3152  -1.3610  -1.0102   1.7542   2.3020   2.5850
     4.1047   7.0166   7.2964   8.1224

          k = 0.1875 0.3969 0.0000 (  8053 PWs)   bands (ev):

   -61.0730 -35.3192 -35.1718 -35.1519 -12.7117 -12.3344  -5.3216  -4.7038
    -3.8864  -3.5002  -2.6081  -1.6034  -0.9132   1.9282   2.3695   2.8111
     4.2388   7.4311   7.8638   7.9710

          k = 0.1875 0.4691 0.0000 (  8044 PWs)   bands (ev):

   -61.0688 -35.3477 -35.1750 -35.1632 -12.4532 -12.2263  -5.4251  -5.0948
    -3.9646  -3.4145  -2.7635  -1.8841  -0.7160   1.9831   2.5855   3.0307
     4.2771   6.9600   8.2971   8.4166

          k = 0.1875 0.5413 0.0000 (  8035 PWs)   bands (ev):

   -61.0664 -35.3626 -35.1880 -35.1586 -12.3049 -12.1643  -5.4705  -5.3058
    -4.1042  -3.3218  -2.7901  -2.0841  -0.5244   1.8746   2.8600   3.1641
     4.2692   6.4832   8.6175   8.8883

          k = 0.2500 0.4330 0.0000 (  8049 PWs)   bands (ev):

   -61.0688 -35.3342 -35.1888 -35.1632 -12.4572 -12.2232  -5.3072  -5.1126
    -3.8097  -3.4297  -3.1117  -1.8387  -0.7305   1.9598   2.6019   2.8889
     4.3728   7.2949   8.0934   8.4248

          k = 0.2500 0.5052 0.0000 (  8025 PWs)   bands (ev):

   -61.0659 -35.3387 -35.2190 -35.1575 -12.2778 -12.1430  -5.3975  -5.2142
    -3.9423  -3.3876  -3.2792  -2.1011  -0.4884   1.7608   2.9368   2.9728
     4.4736   6.9071   7.9863   8.9259

          k = 0.2500 0.5774 0.0000 (  8036 PWs)   bands (ev):

   -61.0649 -35.3386 -35.2313 -35.1555 -12.2129 -12.1136  -5.4987  -5.1413
    -4.0947  -3.4270  -3.1902  -2.2304  -0.3571   1.6309   2.9505   3.1517
     4.5128   6.6986   7.9461   9.1812

          k = 0.3125 0.5413 0.0000 (  8022 PWs)   bands (ev):

   -61.0644 -35.3194 -35.2574 -35.1544 -12.1808 -12.0949  -5.5696  -4.9052
    -4.1394  -3.7246  -3.1154  -2.3088  -0.2755   1.5086   2.8679   3.2677
     4.6159   6.9492   7.5033   9.2856

     highest occupied, lowest unoccupied level (ev):    -0.2105    1.5086

     Writing all to output data dir ./tmp/mos2.save/

     init_run     :      3.91s CPU      4.69s WALL (       1 calls)
     electrons    :    133.06s CPU    133.31s WALL (       1 calls)

     Called by init_run:
     wfcinit      :      0.00s CPU      0.00s WALL (       1 calls)
     potinit      :      0.56s CPU      0.63s WALL (       1 calls)
     hinit0       :      2.31s CPU      2.34s WALL (       1 calls)

     Called by electrons:
     c_bands      :    133.06s CPU    133.31s WALL (       1 calls)
     v_of_rho     :      0.29s CPU      0.34s WALL (       1 calls)
     newd         :      0.94s CPU      1.61s WALL (       1 calls)

     Called by c_bands:
     init_us_2    :      0.08s CPU      0.09s WALL (      30 calls)
     init_us_2:cp :      0.08s CPU      0.09s WALL (      30 calls)
     cegterg      :    128.88s CPU    129.08s WALL (      97 calls)

     Called by *egterg:
     cdiaghg      :      0.85s CPU      0.85s WALL (    1743 calls)
     h_psi        :     80.28s CPU     80.43s WALL (    1840 calls)
     s_psi        :     10.28s CPU     10.29s WALL (    1840 calls)
     g_psi        :      0.42s CPU      0.42s WALL (    1713 calls)

     Called by h_psi:
     h_psi:calbec :     11.76s CPU     11.77s WALL (    1840 calls)
     vloc_psi     :     57.92s CPU     58.05s WALL (    1840 calls)
     add_vuspsi   :     10.29s CPU     10.30s WALL (    1840 calls)

     General routines
     calbec       :     11.75s CPU     11.77s WALL (    1840 calls)
     fft          :      0.65s CPU      0.66s WALL (      13 calls)
     ffts         :      0.25s CPU      0.25s WALL (       1 calls)
     fftw         :     36.66s CPU     36.74s WALL (   38358 calls)
     interpolate  :      0.26s CPU      0.27s WALL (       1 calls)
     davcio       :      0.02s CPU      0.05s WALL (      60 calls)


     PWSCF        :   2m17.26s CPU   2m18.41s WALL


   This run was terminated on:  22:31:27  12Apr2026            

=------------------------------------------------------------------------------=
   JOB DONE.
=------------------------------------------------------------------------------=

     ethr =  3.85E-11,  avg # of iterations = 57.1

     total cpu time spent up to now is      140.8 secs

     End of band structure calculation

          k = 0.0000 0.0000 0.0000 (  8091 PWs)   bands (ev):

   -61.1060 -35.2377 -35.0331 -35.0331 -14.2921 -12.9875  -5.8098  -2.8179
    -2.8179  -1.9800  -1.7145  -1.7145  -0.2105   2.5471   2.5471   2.7963
     2.7963   5.0641   5.4356   5.9093

          k = 0.0000 0.0722 0.0000 (  8077 PWs)   bands (ev):

   -61.1046 -35.2349 -35.0475 -35.0364 -14.2343 -12.9637  -5.7432  -2.9500
    -2.7575  -2.3175  -1.8086  -1.4624  -0.2378   2.4621   2.6288   2.6511
     2.7294   5.1643   5.5119   6.1230

          k = 0.0000 0.1443 0.0000 (  8079 PWs)   bands (ev):

   -61.1005 -35.2269 -35.0885 -35.0457 -14.0661 -12.8946  -5.5595  -3.2902
    -2.7900  -2.5832  -2.0527  -1.2822  -0.3486   2.2853   2.3450   2.5560
     2.9171   5.4162   5.7361   6.5251

          k = 0.0000 0.2165 0.0000 (  8085 PWs)   bands (ev):

   -61.0945 -35.2148 -35.1493 -35.0596 -13.8026 -12.7865  -5.3215  -3.7056
    -3.2803  -2.3688  -2.3170  -1.3273  -0.5940   2.0225   2.3390   2.4098
     3.2491   5.7860   6.0968   6.9093

          k = 0.0000 0.2887 0.0000 (  8083 PWs)   bands (ev):

   -61.0874 -35.2202 -35.2006 -35.0760 -13.4702 -12.6512  -5.1891  -4.0142
    -3.7705  -2.6897  -1.9967  -1.5307  -0.9261   1.9626   2.1443   2.6865
     3.5622   6.2596   6.5704   7.3350

          k = 0.0000 0.3608 0.0000 (  8079 PWs)   bands (ev):

   -61.0803 -35.2904 -35.1863 -35.0924 -13.1077 -12.5058  -5.3393  -4.2337
    -4.0945  -2.9713  -1.7604  -1.6757  -1.1535   2.0209   2.0686   3.0555
     3.8081   6.7879   7.0926   7.7393

          k = 0.0000 0.4330 0.0000 (  8037 PWs)   bands (ev):

   -61.0742 -35.3493 -35.1741 -35.1062 -12.7690 -12.3732  -5.6320  -4.6236
    -4.1353  -3.1870  -1.9379  -1.4113  -1.1258   1.9856   2.2577   3.3834
     3.9730   6.9007   7.4563   7.4620

          k = 0.0000 0.5052 0.0000 (  8034 PWs)   bands (ev):

   -61.0702 -35.3883 -35.1660 -35.1154 -12.5215 -12.2789  -5.8730  -4.8862
    -4.2215  -3.3216  -2.0423  -1.2445  -0.9405   2.0084   2.4498   3.5862
     4.0641   6.2253   7.5942   7.8171

          k = 0.0000-0.5774 0.0000 (  8032 PWs)   bands (ev):

   -61.0688 -35.4020 -35.1632 -35.1186 -12.4296 -12.2446  -5.9645  -4.9791
    -4.2658  -3.3673  -2.0761  -1.1888  -0.8389   2.0272   2.5390   3.6503
     4.0928   5.9281   7.6532   7.9999

          k = 0.0625 0.1083 0.0000 (  8099 PWs)   bands (ev):

   -61.1019 -35.2295 -35.0748 -35.0431 -14.1213 -12.9172  -5.6175  -3.1840
    -2.6466  -2.6422  -2.0171  -1.2789  -0.3067   2.3433   2.3827   2.6024
     2.8521   5.3377   5.6623   6.4249

          k = 0.0625 0.1804 0.0000 (  8104 PWs)   bands (ev):

   -61.0968 -35.2194 -35.1245 -35.0558 -13.9053 -12.8284  -5.4011  -3.5555
    -3.0612  -2.4314  -2.3716  -1.1913  -0.4871   2.0882   2.2838   2.4061
     3.1786   5.6466   5.9557   6.7851

          k = 0.0625 0.2526 0.0000 (  8085 PWs)   bands (ev):

   -61.0903 -35.2063 -35.1889 -35.0725 -13.6068 -12.7062  -5.1977  -3.9109
    -3.5199  -2.7319  -2.1664  -1.2983  -0.7829   1.9101   2.2368   2.4334
     3.5192   6.0728   6.3767   7.1918

          k = 0.0625 0.3248 0.0000 (  8086 PWs)   bands (ev):

   -61.0831 -35.2578 -35.1920 -35.0906 -13.2578 -12.5645  -5.2096  -4.0661
    -4.0055  -3.0136  -1.9201  -1.5273  -1.0465   1.8734   2.1711   2.7531
     3.7977   6.5910   6.8903   7.6558

          k = 0.0625 0.3969 0.0000 (  8056 PWs)   bands (ev):

   -61.0765 -35.3208 -35.1788 -35.1071 -12.9044 -12.4234  -5.4538  -4.4591
    -4.0811  -3.2034  -1.7687  -1.7550  -1.0702   1.9267   2.2284   3.1227
     3.9695   7.0791   7.3998   7.6086

          k = 0.0625 0.4691 0.0000 (  8045 PWs)   bands (ev):

   -61.0715 -35.3686 -35.1687 -35.1198 -12.6070 -12.3075  -5.7216  -4.8096
    -4.1523  -3.3167  -1.9542  -1.6153  -0.9029   2.0032   2.3784   3.4482
     4.0147   6.6121   7.7232   7.7672

          k = 0.0625 0.5413 0.0000 (  8034 PWs)   bands (ev):

   -61.0688 -35.3943 -35.1632 -35.1266 -12.4337 -12.2415  -5.8852  -5.0006
    -4.2333  -3.3690  -2.0526  -1.5186  -0.7393   2.0385   2.5358   3.6779
     3.9580   6.0735   7.9051   8.1202

          k = 0.1250 0.2165 0.0000 (  8093 PWs)   bands (ev):

   -61.0913 -35.2083 -35.1759 -35.0733 -13.6538 -12.7250  -5.2045  -3.8591
    -3.3563  -2.8706  -2.2437  -1.1388  -0.7253   1.8832   2.2685   2.2780
     3.5371   6.0135   6.3121   7.1564

          k = 0.1250 0.2887 0.0000 (  8086 PWs)   bands (ev):

   -61.0847 -35.2348 -35.1951 -35.0950 -13.3371 -12.5949  -5.1238  -4.0284
    -3.7724  -3.2369  -2.1226  -1.2533  -0.9647   1.7596   2.2392   2.4486
     3.8538   6.4957   6.7846   7.6156

          k = 0.1250 0.3608 0.0000 (  8075 PWs)   bands (ev):

   -61.0781 -35.2927 -35.1819 -35.1170 -12.9934 -12.4545  -5.2696  -4.2941
    -4.0090  -3.3767  -2.1467  -1.4948  -1.0216   1.8059   2.2794   2.7546
     4.0579   7.0425   7.3295   8.0846

          k = 0.1250 0.4330 0.0000 (  8050 PWs)   bands (ev):

   -61.0725 -35.3413 -35.1707 -35.1357 -12.6746 -12.3258  -5.4972  -4.7480
    -4.0281  -3.4054  -2.1726  -1.7660  -0.8926   1.9705   2.3585   3.0942
     4.1198   7.1054   7.8371   7.8598

          k = 0.1250 0.5052 0.0000 (  8041 PWs)   bands (ev):

   -61.0688 -35.3735 -35.1632 -35.1483 -12.4435 -12.2339  -5.6739  -5.0495
    -4.1353  -3.3850  -2.1299  -1.9792  -0.6976   2.0275   2.5513   3.3873
     4.0564   6.4575   8.3127   8.3304

          k = 0.1250 0.5774 0.0000 (  8028 PWs)   bands (ev):

   -61.0675 -35.3848 -35.1606 -35.1527 -12.3582 -12.2004  -5.7395  -5.1550
    -4.1931  -3.3687  -2.1041  -2.0617  -0.5973   2.0070   2.6798   3.5297
     3.9844   6.1709   8.6285   8.6384

          k = 0.1875 0.3248 0.0000 (  8071 PWs)   bands (ev):

   -61.0786 -35.2801 -35.1830 -35.1233 -13.0244 -12.4649  -5.1885  -4.2031
    -3.9706  -3.4888  -2.3152  -1.3610  -1.0102   1.7542   2.3020   2.5850
     4.1047   7.0166   7.2964   8.1224

          k = 0.1875 0.3969 0.0000 (  8053 PWs)   bands (ev):

   -61.0730 -35.3192 -35.1718 -35.1519 -12.7117 -12.3344  -5.3216  -4.7038
    -3.8864  -3.5002  -2.6081  -1.6034  -0.9132   1.9282   2.3695   2.8111
     4.2388   7.4311   7.8638   7.9710

          k = 0.1875 0.4691 0.0000 (  8044 PWs)   bands (ev):

   -61.0688 -35.3477 -35.1750 -35.1632 -12.4532 -12.2263  -5.4251  -5.0948
    -3.9646  -3.4145  -2.7635  -1.8841  -0.7160   1.9831   2.5855   3.0307
     4.2771   6.9600   8.2971   8.4166

          k = 0.1875 0.5413 0.0000 (  8035 PWs)   bands (ev):

   -61.0664 -35.3626 -35.1880 -35.1586 -12.3049 -12.1643  -5.4705  -5.3058
    -4.1042  -3.3218  -2.7901  -2.0841  -0.5244   1.8746   2.8600   3.1641
     4.2692   6.4832   8.6175   8.8883

          k = 0.2500 0.4330 0.0000 (  8049 PWs)   bands (ev):

   -61.0688 -35.3342 -35.1888 -35.1632 -12.4572 -12.2232  -5.3072  -5.1126
    -3.8097  -3.4297  -3.1117  -1.8387  -0.7305   1.9598   2.6019   2.8889
     4.3728   7.2949   8.0934   8.4248

          k = 0.2500 0.5052 0.0000 (  8025 PWs)   bands (ev):

   -61.0659 -35.3387 -35.2190 -35.1575 -12.2778 -12.1430  -5.3975  -5.2142
    -3.9423  -3.3876  -3.2792  -2.1011  -0.4884   1.7608   2.9368   2.9728
     4.4736   6.9071   7.9863   8.9259

          k = 0.2500 0.5774 0.0000 (  8036 PWs)   bands (ev):

   -61.0649 -35.3386 -35.2313 -35.1555 -12.2129 -12.1136  -5.4987  -5.1413
    -4.0947  -3.4270  -3.1902  -2.2304  -0.3571   1.6309   2.9505   3.1517
     4.5128   6.6986   7.9461   9.1812

          k = 0.3125 0.5413 0.0000 (  8022 PWs)   bands (ev):

   -61.0644 -35.3194 -35.2574 -35.1544 -12.1808 -12.0949  -5.5696  -4.9052
    -4.1394  -3.7246  -3.1154  -2.3088  -0.2755   1.5086   2.8679   3.2677
     4.6159   6.9492   7.5033   9.2856

     highest occupied, lowest unoccupied level (ev):    -0.2105    1.5086

     Writing all to output data dir ./tmp/mos2.save/

     init_run     :      3.91s CPU      4.69s WALL (       1 calls)
     electrons    :    135.63s CPU    135.92s WALL (       1 calls)

     Called by init_run:
     wfcinit      :      0.00s CPU      0.00s WALL (       1 calls)
     potinit      :      0.57s CPU      0.63s WALL (       1 calls)
     hinit0       :      2.33s CPU      2.35s WALL (       1 calls)

     Called by electrons:
     c_bands      :    135.63s CPU    135.92s WALL (       1 calls)
     v_of_rho     :      0.29s CPU      0.34s WALL (       1 calls)
     newd         :      0.92s CPU      1.60s WALL (       1 calls)

     Called by c_bands:
     init_us_2    :      0.08s CPU      0.09s WALL (      30 calls)
     init_us_2:cp :      0.08s CPU      0.09s WALL (      30 calls)
     cegterg      :    131.38s CPU    131.62s WALL (      97 calls)

     Called by *egterg:
     cdiaghg      :      0.84s CPU      0.85s WALL (    1743 calls)
     h_psi        :     81.90s CPU     82.10s WALL (    1840 calls)
     s_psi        :     10.46s CPU     10.47s WALL (    1840 calls)
     g_psi        :      0.42s CPU      0.43s WALL (    1713 calls)

     Called by h_psi:
     h_psi:calbec :     12.17s CPU     12.19s WALL (    1840 calls)
     vloc_psi     :     58.96s CPU     59.12s WALL (    1840 calls)
     add_vuspsi   :     10.47s CPU     10.48s WALL (    1840 calls)

     General routines
     calbec       :     12.16s CPU     12.18s WALL (    1840 calls)
     fft          :      0.66s CPU      0.67s WALL (      13 calls)
     ffts         :      0.26s CPU      0.26s WALL (       1 calls)
     fftw         :     36.99s CPU     37.09s WALL (   38358 calls)
     interpolate  :      0.27s CPU      0.27s WALL (       1 calls)
     davcio       :      0.01s CPU      0.04s WALL (      60 calls)


     PWSCF        :   2m19.80s CPU   2m21.01s WALL


   This run was terminated on:  22:31:29  12Apr2026            

=------------------------------------------------------------------------------=
   JOB DONE.
=------------------------------------------------------------------------------=
