
     Program PWSCF v.7.2 starts on  8Apr2026 at 22: 1:50 


     Program PWSCF v.7.2 starts on  8Apr2026 at 22: 1:50 

     This program is part of the open-source Quantum ESPRESSO suite
     for quantum simulation of materials; please cite

     Program PWSCF v.7.2 starts on  8Apr2026 at 22: 1:50 

     This program is part of the open-source Quantum ESPRESSO suite
     for quantum simulation of materials; please cite
         "P. Giannozzi et al., J. Phys.:Condens. Matter 21 395502 (2009);
         "P. Giannozzi et al., J. Phys.:Condens. Matter 29 465901 (2017);
         "P. Giannozzi et al., J. Chem. Phys. 152 154105 (2020);
          URL http://www.quantum-espresso.org", 

     Program PWSCF v.7.2 starts on  8Apr2026 at 22: 1:50 

     This program is part of the open-source Quantum ESPRESSO suite
     for quantum simulation of materials; please cite
         "P. Giannozzi et al., J. Phys.:Condens. Matter 21 395502 (2009);
         "P. Giannozzi et al., J. Phys.:Condens. Matter 29 465901 (2017);
         "P. Giannozzi et al., J. Chem. Phys. 152 154105 (2020);
          URL http://www.quantum-espresso.org", 
     in publications or presentations arising from this work. More details at
     http://www.quantum-espresso.org/quote

     Serial version
         "P. Giannozzi et al., J. Phys.:Condens. Matter 21 395502 (2009);
         "P. Giannozzi et al., J. Phys.:Condens. Matter 29 465901 (2017);
         "P. Giannozzi et al., J. Chem. Phys. 152 154105 (2020);
          URL http://www.quantum-espresso.org", 
     in publications or presentations arising from this work. More details at
     http://www.quantum-espresso.org/quote

     Serial version
     in publications or presentations arising from this work. More details at
     http://www.quantum-espresso.org/quote

     Serial version
     This program is part of the open-source Quantum ESPRESSO suite
     for quantum simulation of materials; please cite
         "P. Giannozzi et al., J. Phys.:Condens. Matter 21 395502 (2009);
         "P. Giannozzi et al., J. Phys.:Condens. Matter 29 465901 (2017);
         "P. Giannozzi et al., J. Chem. Phys. 152 154105 (2020);
          URL http://www.quantum-espresso.org", 
     in publications or presentations arising from this work. More details at
     http://www.quantum-espresso.org/quote

     Serial version
     4863 MiB available memory on the printing compute node when the environment starts

     4863 MiB available memory on the printing compute node when the environment starts

     4863 MiB available memory on the printing compute node when the environment starts

     4863 MiB available memory on the printing compute node when the environment starts

     Waiting for input...
     Waiting for input...
     Waiting for input...
     Waiting for input...
     Reading input from standard input
     Reading input from standard input
     Reading input from standard input
     Reading input from standard input

     Current dimensions of program PWSCF are:
     Max number of different atomic species (ntypx) = 10
     Max number of k-points (npk) =  40000
     Max angular momentum in pseudopotentials (lmaxx) =  4

     Current dimensions of program PWSCF are:
     Max number of different atomic species (ntypx) = 10
     Max number of k-points (npk) =  40000
     Max angular momentum in pseudopotentials (lmaxx) =  4

     Current dimensions of program PWSCF are:
     Max number of different atomic species (ntypx) = 10
     Max number of k-points (npk) =  40000
     Max angular momentum in pseudopotentials (lmaxx) =  4

     Current dimensions of program PWSCF are:
     Max number of different atomic species (ntypx) = 10
     Max number of k-points (npk) =  40000
     Max angular momentum in pseudopotentials (lmaxx) =  4
     Message from routine setup:
     using ibrav=0 with symmetry is DISCOURAGED, use correct ibrav instead
     Message from routine setup:
     using ibrav=0 with symmetry is DISCOURAGED, use correct ibrav instead
     Message from routine setup:
     using ibrav=0 with symmetry is DISCOURAGED, use correct ibrav instead
     Message from routine setup:
     using ibrav=0 with symmetry is DISCOURAGED, use correct ibrav instead





     G-vector sticks info
     --------------------
     sticks:   dense  smooth     PW     G-vecs:    dense   smooth      PW
     Sum        1507     595    169               254925    64451   10253

     Using Slab Decomposition


     G-vector sticks info
     --------------------
     sticks:   dense  smooth     PW     G-vecs:    dense   smooth      PW
     Sum        1507     595    169               254925    64451   10253

     Using Slab Decomposition


     Title: 
     MoS2 Monolayer scf                                                         


     bravais-lattice index     =            0

     Title: 
     MoS2 Monolayer scf                                                         


     bravais-lattice index     =            0

     G-vector sticks info
     --------------------
     sticks:   dense  smooth     PW     G-vecs:    dense   smooth      PW
     Sum        1507     595    169               254925    64451   10253

     Using Slab Decomposition


     Title: 
     MoS2 Monolayer scf                                                         


     bravais-lattice index     =            0

     G-vector sticks info
     --------------------
     sticks:   dense  smooth     PW     G-vecs:    dense   smooth      PW
     Sum        1507     595    169               254925    64451   10253

     Using Slab Decomposition


     Title: 
     MoS2 Monolayer scf                                                         


     bravais-lattice index     =            0
     lattice parameter (alat)  =       6.0155  a.u.
     unit-cell volume          =    1026.5532 (a.u.)^3
     number of atoms/cell      =            3
     number of atomic types    =            2
     number of electrons       =        26.00
     number of Kohn-Sham states=           17
     kinetic-energy cutoff     =      60.0000  Ry
     charge density cutoff     =     600.0000  Ry
     lattice parameter (alat)  =       6.0155  a.u.
     unit-cell volume          =    1026.5532 (a.u.)^3
     number of atoms/cell      =            3
     number of atomic types    =            2
     number of electrons       =        26.00
     number of Kohn-Sham states=           17
     kinetic-energy cutoff     =      60.0000  Ry
     charge density cutoff     =     600.0000  Ry
     lattice parameter (alat)  =       6.0155  a.u.
     unit-cell volume          =    1026.5532 (a.u.)^3
     number of atoms/cell      =            3
     number of atomic types    =            2
     number of electrons       =        26.00
     number of Kohn-Sham states=           17
     kinetic-energy cutoff     =      60.0000  Ry
     charge density cutoff     =     600.0000  Ry
     scf convergence threshold =      1.0E-08
     mixing beta               =       0.7000
     number of iterations used =            8  plain     mixing
     Exchange-correlation=  SLA  PW   PBX  PBC
     scf convergence threshold =      1.0E-08
     mixing beta               =       0.7000
     number of iterations used =            8  plain     mixing
     Exchange-correlation=  SLA  PW   PBX  PBC
     scf convergence threshold =      1.0E-08
     mixing beta               =       0.7000
     number of iterations used =            8  plain     mixing
     Exchange-correlation=  SLA  PW   PBX  PBC
                           (   1   4   3   4   0   0   0)

     celldm(1)=   6.015463  celldm(2)=   0.000000  celldm(3)=   0.000000
     celldm(4)=   0.000000  celldm(5)=   0.000000  celldm(6)=   0.000000

     crystal axes: (cart. coord. in units of alat)
                           (   1   4   3   4   0   0   0)

     celldm(1)=   6.015463  celldm(2)=   0.000000  celldm(3)=   0.000000
     celldm(4)=   0.000000  celldm(5)=   0.000000  celldm(6)=   0.000000

     crystal axes: (cart. coord. in units of alat)
                           (   1   4   3   4   0   0   0)

     celldm(1)=   6.015463  celldm(2)=   0.000000  celldm(3)=   0.000000
     celldm(4)=   0.000000  celldm(5)=   0.000000  celldm(6)=   0.000000

     crystal axes: (cart. coord. in units of alat)
               a(1) = (   1.000000   0.000000   0.000000 )  
               a(2) = (  -0.500000   0.866025   0.000000 )  
               a(3) = (   0.000000   0.000000   5.445573 )  

     reciprocal axes: (cart. coord. in units 2 pi/alat)
               b(1) = (  1.000000  0.577350 -0.000000 )  
               b(2) = (  0.000000  1.154701  0.000000 )  
               a(1) = (   1.000000   0.000000   0.000000 )  
               a(2) = (  -0.500000   0.866025   0.000000 )  
               a(3) = (   0.000000   0.000000   5.445573 )  

     reciprocal axes: (cart. coord. in units 2 pi/alat)
               b(1) = (  1.000000  0.577350 -0.000000 )  
               b(2) = (  0.000000  1.154701  0.000000 )  
               a(1) = (   1.000000   0.000000   0.000000 )  
               a(2) = (  -0.500000   0.866025   0.000000 )  
               a(3) = (   0.000000   0.000000   5.445573 )  

     reciprocal axes: (cart. coord. in units 2 pi/alat)
               b(1) = (  1.000000  0.577350 -0.000000 )  
               b(2) = (  0.000000  1.154701  0.000000 )  
               b(3) = (  0.000000 -0.000000  0.183635 )  


     PseudoPot. # 1 for Mo read from file:
     ./mo_pbe_v1.uspp.F.UPF
     MD5 check sum: 30c4dcd161f5d35cd49bb5239c51a633
     Pseudo is Ultrasoft + core correction, Zval = 14.0
     Generated by new atomic code, or converted to UPF format
     Using radial grid of  889 points,  6 beta functions with: 
                l(1) =   0
                l(2) =   0
                l(3) =   1
                l(4) =   1
                l(5) =   2
                l(6) =   2
     Q(r) pseudized with  6 coefficients,  rinner =    1.000   1.000   1.000
                                                       1.000   1.000

     PseudoPot. # 2 for S  read from file:
     ./s_pbe_v1.4.uspp.F.UPF
               b(3) = (  0.000000 -0.000000  0.183635 )  


     PseudoPot. # 1 for Mo read from file:
     ./mo_pbe_v1.uspp.F.UPF
     MD5 check sum: 30c4dcd161f5d35cd49bb5239c51a633
     Pseudo is Ultrasoft + core correction, Zval = 14.0
     Generated by new atomic code, or converted to UPF format
     Using radial grid of  889 points,  6 beta functions with: 
                l(1) =   0
                l(2) =   0
                l(3) =   1
                l(4) =   1
                l(5) =   2
                l(6) =   2
     Q(r) pseudized with  6 coefficients,  rinner =    1.000   1.000   1.000
                                                       1.000   1.000
               b(3) = (  0.000000 -0.000000  0.183635 )  


     PseudoPot. # 1 for Mo read from file:
     ./mo_pbe_v1.uspp.F.UPF
     MD5 check sum: 30c4dcd161f5d35cd49bb5239c51a633
     Pseudo is Ultrasoft + core correction, Zval = 14.0
     Generated by new atomic code, or converted to UPF format
     Using radial grid of  889 points,  6 beta functions with: 
                l(1) =   0
                l(2) =   0
                l(3) =   1
                l(4) =   1
                l(5) =   2
                l(6) =   2
     Q(r) pseudized with  6 coefficients,  rinner =    1.000   1.000   1.000
                                                       1.000   1.000

     PseudoPot. # 2 for S  read from file:
     ./s_pbe_v1.4.uspp.F.UPF
     MD5 check sum: 88d86576ff6df21479756cfb9bdac1df
     Pseudo is Ultrasoft + core correction, Zval =  6.0
     Generated by new atomic code, or converted to UPF format

     PseudoPot. # 2 for S  read from file:
     ./s_pbe_v1.4.uspp.F.UPF
     MD5 check sum: 88d86576ff6df21479756cfb9bdac1df
     Pseudo is Ultrasoft + core correction, Zval =  6.0
     Generated by new atomic code, or converted to UPF format
     MD5 check sum: 88d86576ff6df21479756cfb9bdac1df
     Pseudo is Ultrasoft + core correction, Zval =  6.0
     Generated by new atomic code, or converted to UPF format
     Using radial grid of  907 points,  6 beta functions with: 
                l(1) =   0
                l(2) =   0
                l(3) =   1
                l(4) =   1
     Using radial grid of  907 points,  6 beta functions with: 
                l(1) =   0
                l(2) =   0
                l(3) =   1
                l(4) =   1
                l(5) =   2
                l(6) =   2
                l(5) =   2
                l(6) =   2
     Using radial grid of  907 points,  6 beta functions with: 
                l(1) =   0
                l(2) =   0
                l(3) =   1
                l(4) =   1
                l(5) =   2
     Q(r) pseudized with  8 coefficients,  rinner =    1.300   1.300   1.300
                                                       1.300   1.300

                l(6) =   2
     Q(r) pseudized with  8 coefficients,  rinner =    1.300   1.300   1.300
                                                       1.300   1.300

     atomic species   valence    mass     pseudopotential
        Mo            14.00    95.94000     Mo( 1.00)
     Q(r) pseudized with  8 coefficients,  rinner =    1.300   1.300   1.300
                                                       1.300   1.300

     atomic species   valence    mass     pseudopotential
        Mo            14.00    95.94000     Mo( 1.00)
        S              6.00    32.06600     S ( 1.00)

     12 Sym. Ops. (no inversion) found

     atomic species   valence    mass     pseudopotential
        Mo            14.00    95.94000     Mo( 1.00)
        S              6.00    32.06600     S ( 1.00)

     12 Sym. Ops. (no inversion) found


                                    s                        frac. trans.

                                    s                        frac. trans.
        S              6.00    32.06600     S ( 1.00)


      isym =  1     identity                                     

 cryst.   s( 1) = (     1          0          0      )
     12 Sym. Ops. (no inversion) found


                                    s                        frac. trans.

      isym =  1     identity                                     


      isym =  1     identity                                     

 cryst.   s( 1) = (     1          0          0      )
                  (     0          1          0      )
                  (     0          0          1      )

 cart.    s( 1) = (  1.0000000  0.0000000  0.0000000 )
                  (  0.0000000  1.0000000  0.0000000 )
                  (  0.0000000  0.0000000  1.0000000 )
 cryst.   s( 1) = (     1          0          0      )
                  (     0          1          0      )
                  (     0          0          1      )

 cart.    s( 1) = (  1.0000000  0.0000000  0.0000000 )
                  (     0          1          0      )
                  (     0          0          1      )

 cart.    s( 1) = (  1.0000000  0.0000000  0.0000000 )


      isym =  2     180 deg rotation - cart. axis [0,1,0]        

 cryst.   s( 2) = (    -1          0          0      )
                  (     1          1          0      )
                  (     0          0         -1      )

 cart.    s( 2) = ( -1.0000000  0.0000000  0.0000000 )
                  (  0.0000000  1.0000000  0.0000000 )
                  (  0.0000000  0.0000000 -1.0000000 )


      isym =  3     120 deg rotation - cryst. axis [0,0,1]       
                  (  0.0000000  1.0000000  0.0000000 )
                  (  0.0000000  0.0000000  1.0000000 )


      isym =  2     180 deg rotation - cart. axis [0,1,0]        

 cryst.   s( 2) = (    -1          0          0      )
                  (     1          1          0      )
                  (     0          0         -1      )

 cart.    s( 2) = ( -1.0000000  0.0000000  0.0000000 )
                  (  0.0000000  1.0000000  0.0000000 )
                  (  0.0000000  1.0000000  0.0000000 )
                  (  0.0000000  0.0000000  1.0000000 )


      isym =  2     180 deg rotation - cart. axis [0,1,0]        

 cryst.   s( 2) = (    -1          0          0      )
                  (     1          1          0      )
                  (     0          0         -1      )

 cart.    s( 2) = ( -1.0000000  0.0000000  0.0000000 )
                  (  0.0000000  1.0000000  0.0000000 )
                  (  0.0000000  0.0000000 -1.0000000 )


 cryst.   s( 3) = (     0          1          0      )
                  (    -1         -1          0      )
                  (     0          0          1      )

 cart.    s( 3) = ( -0.5000000 -0.8660254  0.0000000 )
                  (  0.8660254 -0.5000000  0.0000000 )
                  (  0.0000000  0.0000000  1.0000000 )


      isym =  4     120 deg rotation - cryst. axis [0,0,-1]      


      isym =  3     120 deg rotation - cryst. axis [0,0,1]       

 cryst.   s( 3) = (     0          1          0      )
                  (    -1         -1          0      )
                  (     0          0          1      )

 cart.    s( 3) = ( -0.5000000 -0.8660254  0.0000000 )
                  (  0.8660254 -0.5000000  0.0000000 )
                  (  0.0000000  0.0000000  1.0000000 )


      isym =  4     120 deg rotation - cryst. axis [0,0,-1]      
                  (  0.0000000  0.0000000 -1.0000000 )


      isym =  3     120 deg rotation - cryst. axis [0,0,1]       

 cryst.   s( 3) = (     0          1          0      )
                  (    -1         -1          0      )
                  (     0          0          1      )

 cart.    s( 3) = ( -0.5000000 -0.8660254  0.0000000 )
                  (  0.8660254 -0.5000000  0.0000000 )
                  (  0.0000000  0.0000000  1.0000000 )


      isym =  4     120 deg rotation - cryst. axis [0,0,-1]      

 cryst.   s( 4) = (    -1         -1          0      )
                  (     1          0          0      )
                  (     0          0          1      )

 cart.    s( 4) = ( -0.5000000  0.8660254  0.0000000 )
                  ( -0.8660254 -0.5000000  0.0000000 )
                  (  0.0000000  0.0000000  1.0000000 )


      isym =  5     180 deg rotation - cryst. axis [1,-1,0]      

 cryst.   s( 5) = (     0         -1          0      )
                  (    -1          0          0      )
                  (     0          0         -1      )

 cart.    s( 5) = (  0.5000000 -0.8660254  0.0000000 )
                  ( -0.8660254 -0.5000000  0.0000000 )
                  (  0.0000000  0.0000000 -1.0000000 )

 cryst.   s( 4) = (    -1         -1          0      )
                  (     1          0          0      )
                  (     0          0          1      )

 cart.    s( 4) = ( -0.5000000  0.8660254  0.0000000 )
                  ( -0.8660254 -0.5000000  0.0000000 )
                  (  0.0000000  0.0000000  1.0000000 )


      isym =  5     180 deg rotation - cryst. axis [1,-1,0]      

 cryst.   s( 5) = (     0         -1          0      )
                  (    -1          0          0      )
                  (     0          0         -1      )

 cart.    s( 5) = (  0.5000000 -0.8660254  0.0000000 )
                  ( -0.8660254 -0.5000000  0.0000000 )
                  (  0.0000000  0.0000000 -1.0000000 )

 cryst.   s( 4) = (    -1         -1          0      )
                  (     1          0          0      )
                  (     0          0          1      )

 cart.    s( 4) = ( -0.5000000  0.8660254  0.0000000 )
                  ( -0.8660254 -0.5000000  0.0000000 )
                  (  0.0000000  0.0000000  1.0000000 )


      isym =  5     180 deg rotation - cryst. axis [1,-1,0]      

 cryst.   s( 5) = (     0         -1          0      )
                  (    -1          0          0      )
                  (     0          0         -1      )

 cart.    s( 5) = (  0.5000000 -0.8660254  0.0000000 )
                  ( -0.8660254 -0.5000000  0.0000000 )
                  (  0.0000000  0.0000000 -1.0000000 )


      isym =  6     180 deg rotation - cryst. axis [2,1,0]       

 cryst.   s( 6) = (     1          1          0      )
                  (     0         -1          0      )
                  (     0          0         -1      )

 cart.    s( 6) = (  0.5000000  0.8660254  0.0000000 )
                  (  0.8660254 -0.5000000  0.0000000 )
                  (  0.0000000  0.0000000 -1.0000000 )


      isym =  7     inv. 180 deg rotation - cart. axis [0,0,1]   

 cryst.   s( 7) = (     1          0          0      )
                  (     0          1          0      )
                  (     0          0         -1      )

 cart.    s( 7) = (  1.0000000  0.0000000  0.0000000 )
                  (  0.0000000  1.0000000  0.0000000 )
                  (  0.0000000  0.0000000 -1.0000000 )




      isym =  6     180 deg rotation - cryst. axis [2,1,0]       

 cryst.   s( 6) = (     1          1          0      )
                  (     0         -1          0      )
                  (     0          0         -1      )

 cart.    s( 6) = (  0.5000000  0.8660254  0.0000000 )
                  (  0.8660254 -0.5000000  0.0000000 )
                  (  0.0000000  0.0000000 -1.0000000 )


      isym =  7     inv. 180 deg rotation - cart. axis [0,0,1]   

 cryst.   s( 7) = (     1          0          0      )
                  (     0          1          0      )
                  (     0          0         -1      )

 cart.    s( 7) = (  1.0000000  0.0000000  0.0000000 )
                  (  0.0000000  1.0000000  0.0000000 )
                  (  0.0000000  0.0000000 -1.0000000 )

      isym =  6     180 deg rotation - cryst. axis [2,1,0]       

 cryst.   s( 6) = (     1          1          0      )
                  (     0         -1          0      )
                  (     0          0         -1      )

 cart.    s( 6) = (  0.5000000  0.8660254  0.0000000 )
                  (  0.8660254 -0.5000000  0.0000000 )
                  (  0.0000000  0.0000000 -1.0000000 )


      isym =  7     inv. 180 deg rotation - cart. axis [0,0,1]   

 cryst.   s( 7) = (     1          0          0      )
                  (     0          1          0      )
                  (     0          0         -1      )
      isym =  8     inv. 180 deg rotation - cart. axis [1,0,0]   

 cryst.   s( 8) = (    -1          0          0      )
                  (     1          1          0      )
                  (     0          0          1      )



      isym =  8     inv. 180 deg rotation - cart. axis [1,0,0]   

 cryst.   s( 8) = (    -1          0          0      )
                  (     1          1          0      )
                  (     0          0          1      )


 cart.    s( 7) = (  1.0000000  0.0000000  0.0000000 )
                  (  0.0000000  1.0000000  0.0000000 )
                  (  0.0000000  0.0000000 -1.0000000 )


      isym =  8     inv. 180 deg rotation - cart. axis [1,0,0]   

 cryst.   s( 8) = (    -1          0          0      )
                  (     1          1          0      )
                  (     0          0          1      )

 cart.    s( 8) = ( -1.0000000  0.0000000  0.0000000 )
                  (  0.0000000  1.0000000  0.0000000 )
                  (  0.0000000  0.0000000  1.0000000 )


 cart.    s( 8) = ( -1.0000000  0.0000000  0.0000000 )
                  (  0.0000000  1.0000000  0.0000000 )
                  (  0.0000000  0.0000000  1.0000000 )


      isym =  9     inv.  60 deg rotation - cryst. axis [0,0,1]  

 cryst.   s( 9) = (    -1         -1          0      )
                  (     1          0          0      )
                  (     0          0         -1      )

 cart.    s( 9) = ( -0.5000000  0.8660254  0.0000000 )
                  ( -0.8660254 -0.5000000  0.0000000 )
 cart.    s( 8) = ( -1.0000000  0.0000000  0.0000000 )
                  (  0.0000000  1.0000000  0.0000000 )
                  (  0.0000000  0.0000000  1.0000000 )


      isym =  9     inv.  60 deg rotation - cryst. axis [0,0,1]  

 cryst.   s( 9) = (    -1         -1          0      )
                  (     1          0          0      )
                  (     0          0         -1      )

      isym =  9     inv.  60 deg rotation - cryst. axis [0,0,1]  

 cryst.   s( 9) = (    -1         -1          0      )
                  (     1          0          0      )
                  (     0          0         -1      )

 cart.    s( 9) = ( -0.5000000  0.8660254  0.0000000 )
                  ( -0.8660254 -0.5000000  0.0000000 )
                  (  0.0000000  0.0000000 -1.0000000 )


      isym = 10     inv.  60 deg rotation - cryst. axis [0,0,-1] 

 cryst.   s(10) = (     0          1          0      )
                  (  0.0000000  0.0000000 -1.0000000 )


      isym = 10     inv.  60 deg rotation - cryst. axis [0,0,-1] 

 cryst.   s(10) = (     0          1          0      )
                  (    -1         -1          0      )
                  (     0          0         -1      )

 cart.    s(10) = ( -0.5000000 -0.8660254  0.0000000 )
 cart.    s( 9) = ( -0.5000000  0.8660254  0.0000000 )
                  ( -0.8660254 -0.5000000  0.0000000 )
                  (  0.0000000  0.0000000 -1.0000000 )


      isym = 10     inv.  60 deg rotation - cryst. axis [0,0,-1] 

 cryst.   s(10) = (     0          1          0      )
                  (    -1         -1          0      )
                  (  0.8660254 -0.5000000  0.0000000 )
                  (  0.0000000  0.0000000 -1.0000000 )


      isym = 11     inv. 180 deg rotation - cryst. axis [0,1,0]  

 cryst.   s(11) = (     1          1          0      )
                  (     0         -1          0      )
                  (     0          0          1      )

                  (    -1         -1          0      )
                  (     0          0         -1      )

 cart.    s(10) = ( -0.5000000 -0.8660254  0.0000000 )
                  (  0.8660254 -0.5000000  0.0000000 )
                  (  0.0000000  0.0000000 -1.0000000 )


      isym = 11     inv. 180 deg rotation - cryst. axis [0,1,0]  

 cryst.   s(11) = (     1          1          0      )
                  (     0         -1          0      )
                  (     0          0         -1      )

 cart.    s(10) = ( -0.5000000 -0.8660254  0.0000000 )
                  (  0.8660254 -0.5000000  0.0000000 )
                  (  0.0000000  0.0000000 -1.0000000 )


      isym = 11     inv. 180 deg rotation - cryst. axis [0,1,0]  

 cryst.   s(11) = (     1          1          0      )
                  (     0          0          1      )

 cart.    s(11) = (  0.5000000  0.8660254  0.0000000 )
                  (  0.8660254 -0.5000000  0.0000000 )
                  (  0.0000000  0.0000000  1.0000000 )


      isym = 12     inv. 180 deg rotation - cryst. axis [1,1,0]  

 cart.    s(11) = (  0.5000000  0.8660254  0.0000000 )
                  (  0.8660254 -0.5000000  0.0000000 )
                  (  0.0000000  0.0000000  1.0000000 )


      isym = 12     inv. 180 deg rotation - cryst. axis [1,1,0]  

 cryst.   s(12) = (     0         -1          0      )
                  (     0         -1          0      )
                  (     0          0          1      )

 cart.    s(11) = (  0.5000000  0.8660254  0.0000000 )
                  (  0.8660254 -0.5000000  0.0000000 )
                  (  0.0000000  0.0000000  1.0000000 )


      isym = 12     inv. 180 deg rotation - cryst. axis [1,1,0]  

 cryst.   s(12) = (     0         -1          0      )
                  (    -1          0          0      )
                  (     0          0          1      )

 cart.    s(12) = (  0.5000000 -0.8660254  0.0000000 )
 cryst.   s(12) = (     0         -1          0      )
                  (    -1          0          0      )
                  (     0          0          1      )

 cart.    s(12) = (  0.5000000 -0.8660254  0.0000000 )
                  ( -0.8660254 -0.5000000  0.0000000 )
                  (    -1          0          0      )
                  (     0          0          1      )

 cart.    s(12) = (  0.5000000 -0.8660254  0.0000000 )
                  ( -0.8660254 -0.5000000  0.0000000 )
                  (  0.0000000  0.0000000  1.0000000 )

                  ( -0.8660254 -0.5000000  0.0000000 )
                  (  0.0000000  0.0000000  1.0000000 )

                  (  0.0000000  0.0000000  1.0000000 )

     lattice parameter (alat)  =       6.0155  a.u.
     unit-cell volume          =    1026.5532 (a.u.)^3
     number of atoms/cell      =            3
     number of atomic types    =            2
     number of electrons       =        26.00
     number of Kohn-Sham states=           17
     kinetic-energy cutoff     =      60.0000  Ry
     charge density cutoff     =     600.0000  Ry
     scf convergence threshold =      1.0E-08
     mixing beta               =       0.7000
     number of iterations used =            8  plain     mixing
     Exchange-correlation=  SLA  PW   PBX  PBC
                           (   1   4   3   4   0   0   0)

     celldm(1)=   6.015463  celldm(2)=   0.000000  celldm(3)=   0.000000
     celldm(4)=   0.000000  celldm(5)=   0.000000  celldm(6)=   0.000000

     crystal axes: (cart. coord. in units of alat)
               a(1) = (   1.000000   0.000000   0.000000 )  
               a(2) = (  -0.500000   0.866025   0.000000 )  
               a(3) = (   0.000000   0.000000   5.445573 )  

     reciprocal axes: (cart. coord. in units 2 pi/alat)
               b(1) = (  1.000000  0.577350 -0.000000 )  
               b(2) = (  0.000000  1.154701  0.000000 )  
               b(3) = (  0.000000 -0.000000  0.183635 )  


     PseudoPot. # 1 for Mo read from file:
     ./mo_pbe_v1.uspp.F.UPF
     MD5 check sum: 30c4dcd161f5d35cd49bb5239c51a633
     Pseudo is Ultrasoft + core correction, Zval = 14.0
     Generated by new atomic code, or converted to UPF format
     Using radial grid of  889 points,  6 beta functions with: 
                l(1) =   0
                l(2) =   0
                l(3) =   1
                l(4) =   1
                l(5) =   2
                l(6) =   2
     Q(r) pseudized with  6 coefficients,  rinner =    1.000   1.000   1.000
                                                       1.000   1.000

     PseudoPot. # 2 for S  read from file:
     ./s_pbe_v1.4.uspp.F.UPF
     MD5 check sum: 88d86576ff6df21479756cfb9bdac1df
     Pseudo is Ultrasoft + core correction, Zval =  6.0
     Generated by new atomic code, or converted to UPF format
     Using radial grid of  907 points,  6 beta functions with: 
                l(1) =   0
                l(2) =   0
                l(3) =   1
                l(4) =   1
                l(5) =   2
                l(6) =   2

   Cartesian axes

     site n.     atom                  positions (alat units)

   Cartesian axes

     site n.     atom                  positions (alat units)
         1           Mo  tau(   1) = (   0.0000000   0.0000000   2.7227867  )
     Q(r) pseudized with  8 coefficients,  rinner =    1.300   1.300   1.300
                                                       1.300   1.300

     atomic species   valence    mass     pseudopotential
        Mo            14.00    95.94000     Mo( 1.00)
         1           Mo  tau(   1) = (   0.0000000   0.0000000   2.7227867  )
         2           S   tau(   2) = (  -0.0000000   0.5773503   3.2135870  )
         3           S   tau(   3) = (   0.0000000   0.5773503   2.2319864  )

   Crystallographic axes
        S              6.00    32.06600     S ( 1.00)

     12 Sym. Ops. (no inversion) found


                                    s                        frac. trans.

      isym =  1     identity                                     
         2           S   tau(   2) = (  -0.0000000   0.5773503   3.2135870  )
         3           S   tau(   3) = (   0.0000000   0.5773503   2.2319864  )

   Crystallographic axes

     site n.     atom                  positions (cryst. coord.)

 cryst.   s( 1) = (     1          0          0      )
                  (     0          1          0      )
                  (     0          0          1      )

 cart.    s( 1) = (  1.0000000  0.0000000  0.0000000 )
                  (  0.0000000  1.0000000  0.0000000 )
                  (  0.0000000  0.0000000  1.0000000 )


      isym =  2     180 deg rotation - cart. axis [0,1,0]        

 cryst.   s( 2) = (    -1          0          0      )
                  (     1          1          0      )
                  (     0          0         -1      )

 cart.    s( 2) = ( -1.0000000  0.0000000  0.0000000 )
                  (  0.0000000  1.0000000  0.0000000 )
                  (  0.0000000  0.0000000 -1.0000000 )


      isym =  3     120 deg rotation - cryst. axis [0,0,1]       

 cryst.   s( 3) = (     0          1          0      )
                  (    -1         -1          0      )
                  (     0          0          1      )

 cart.    s( 3) = ( -0.5000000 -0.8660254  0.0000000 )
                  (  0.8660254 -0.5000000  0.0000000 )
                  (  0.0000000  0.0000000  1.0000000 )


      isym =  4     120 deg rotation - cryst. axis [0,0,-1]      

 cryst.   s( 4) = (    -1         -1          0      )
                  (     1          0          0      )

     site n.     atom                  positions (cryst. coord.)
         1           Mo  tau(   1) = (  0.0000000  0.0000000  0.5000000  )
         2           S   tau(   2) = (  0.3333333  0.6666667  0.5901283  )
         3           S   tau(   3) = (  0.3333333  0.6666667  0.4098717  )

     number of k points=    12  Gaussian smearing, width (Ry)=  0.0100
                       cart. coord. in units 2pi/alat
        k(    1) = (   0.0000000   0.0000000   0.0000000), wk =   0.0246914
        k(    2) = (   0.0000000   0.1283001   0.0000000), wk =   0.1481481
        k(    3) = (   0.0000000   0.2566001   0.0000000), wk =   0.1481481
        k(    4) = (   0.0000000   0.3849002   0.0000000), wk =   0.1481481
        k(    5) = (   0.0000000   0.5132002   0.0000000), wk =   0.1481481
        k(    6) = (   0.1111111   0.1924501   0.0000000), wk =   0.1481481
        k(    7) = (   0.1111111   0.3207501   0.0000000), wk =   0.2962963
        k(    8) = (   0.1111111   0.4490502   0.0000000), wk =   0.2962963
         1           Mo  tau(   1) = (  0.0000000  0.0000000  0.5000000  )
         2           S   tau(   2) = (  0.3333333  0.6666667  0.5901283  )
         3           S   tau(   3) = (  0.3333333  0.6666667  0.4098717  )

     number of k points=    12  Gaussian smearing, width (Ry)=  0.0100
                       cart. coord. in units 2pi/alat
        k(    1) = (   0.0000000   0.0000000   0.0000000), wk =   0.0246914
        k(    2) = (   0.0000000   0.1283001   0.0000000), wk =   0.1481481
        k(    3) = (   0.0000000   0.2566001   0.0000000), wk =   0.1481481
        k(    9) = (   0.1111111   0.5773503   0.0000000), wk =   0.1481481
        k(   10) = (   0.2222222   0.3849002   0.0000000), wk =   0.1481481
        k(   11) = (   0.2222222   0.5132002   0.0000000), wk =   0.2962963
        k(   12) = (   0.3333333   0.5773503   0.0000000), wk =   0.0493827
                  (     0          0          1      )

 cart.    s( 4) = ( -0.5000000  0.8660254  0.0000000 )
                  ( -0.8660254 -0.5000000  0.0000000 )
                  (  0.0000000  0.0000000  1.0000000 )


      isym =  5     180 deg rotation - cryst. axis [1,-1,0]      

        k(    4) = (   0.0000000   0.3849002   0.0000000), wk =   0.1481481
        k(    5) = (   0.0000000   0.5132002   0.0000000), wk =   0.1481481
        k(    6) = (   0.1111111   0.1924501   0.0000000), wk =   0.1481481
        k(    7) = (   0.1111111   0.3207501   0.0000000), wk =   0.2962963
 cryst.   s( 5) = (     0         -1          0      )
                  (    -1          0          0      )
                  (     0          0         -1      )

 cart.    s( 5) = (  0.5000000 -0.8660254  0.0000000 )
                  ( -0.8660254 -0.5000000  0.0000000 )
                  (  0.0000000  0.0000000 -1.0000000 )



                       cryst. coord.
        k(    1) = (   0.0000000   0.0000000   0.0000000), wk =   0.0246914
        k(    2) = (   0.0000000   0.1111111   0.0000000), wk =   0.1481481
        k(    3) = (   0.0000000   0.2222222   0.0000000), wk =   0.1481481
        k(    4) = (   0.0000000   0.3333333   0.0000000), wk =   0.1481481
        k(    5) = (   0.0000000   0.4444444   0.0000000), wk =   0.1481481
        k(    8) = (   0.1111111   0.4490502   0.0000000), wk =   0.2962963
        k(    9) = (   0.1111111   0.5773503   0.0000000), wk =   0.1481481
        k(   10) = (   0.2222222   0.3849002   0.0000000), wk =   0.1481481
        k(   11) = (   0.2222222   0.5132002   0.0000000), wk =   0.2962963
        k(   12) = (   0.3333333   0.5773503   0.0000000), wk =   0.0493827

                       cryst. coord.
        k(    6) = (   0.1111111   0.1111111   0.0000000), wk =   0.1481481
        k(    7) = (   0.1111111   0.2222222   0.0000000), wk =   0.2962963
        k(    8) = (   0.1111111   0.3333333   0.0000000), wk =   0.2962963
        k(    9) = (   0.1111111   0.4444444   0.0000000), wk =   0.1481481
      isym =  6     180 deg rotation - cryst. axis [2,1,0]       

 cryst.   s( 6) = (     1          1          0      )
                  (     0         -1          0      )
                  (     0          0         -1      )

 cart.    s( 6) = (  0.5000000  0.8660254  0.0000000 )
                  (  0.8660254 -0.5000000  0.0000000 )
                  (  0.0000000  0.0000000 -1.0000000 )


      isym =  7     inv. 180 deg rotation - cart. axis [0,0,1]   

 cryst.   s( 7) = (     1          0          0      )
        k(    1) = (   0.0000000   0.0000000   0.0000000), wk =   0.0246914
        k(    2) = (   0.0000000   0.1111111   0.0000000), wk =   0.1481481
        k(    3) = (   0.0000000   0.2222222   0.0000000), wk =   0.1481481
        k(    4) = (   0.0000000   0.3333333   0.0000000), wk =   0.1481481
        k(   10) = (   0.2222222   0.2222222   0.0000000), wk =   0.1481481
        k(   11) = (   0.2222222   0.3333333   0.0000000), wk =   0.2962963
        k(   12) = (   0.3333333   0.3333333   0.0000000), wk =   0.0493827
        k(    5) = (   0.0000000   0.4444444   0.0000000), wk =   0.1481481
        k(    6) = (   0.1111111   0.1111111   0.0000000), wk =   0.1481481
        k(    7) = (   0.1111111   0.2222222   0.0000000), wk =   0.2962963
                  (     0          1          0      )
                  (     0          0         -1      )

 cart.    s( 7) = (  1.0000000  0.0000000  0.0000000 )
                  (  0.0000000  1.0000000  0.0000000 )
                  (  0.0000000  0.0000000 -1.0000000 )


        k(    8) = (   0.1111111   0.3333333   0.0000000), wk =   0.2962963
        k(    9) = (   0.1111111   0.4444444   0.0000000), wk =   0.1481481
        k(   10) = (   0.2222222   0.2222222   0.0000000), wk =   0.1481481
        k(   11) = (   0.2222222   0.3333333   0.0000000), wk =   0.2962963
        k(   12) = (   0.3333333   0.3333333   0.0000000), wk =   0.0493827

     Dense  grid:   254925 G-vectors     FFT dimensions: (  48,  48, 256)
      isym =  8     inv. 180 deg rotation - cart. axis [1,0,0]   

 cryst.   s( 8) = (    -1          0          0      )
                  (     1          1          0      )
                  (     0          0          1      )

 cart.    s( 8) = ( -1.0000000  0.0000000  0.0000000 )
                  (  0.0000000  1.0000000  0.0000000 )
                  (  0.0000000  0.0000000  1.0000000 )


      isym =  9     inv.  60 deg rotation - cryst. axis [0,0,1]  

 cryst.   s( 9) = (    -1         -1          0      )
                  (     1          0          0      )
                  (     0          0         -1      )

 cart.    s( 9) = ( -0.5000000  0.8660254  0.0000000 )
                  ( -0.8660254 -0.5000000  0.0000000 )

     Smooth grid:    64451 G-vectors     FFT dimensions: (  30,  30, 162)

     Dense  grid:   254925 G-vectors     FFT dimensions: (  48,  48, 256)

     Smooth grid:    64451 G-vectors     FFT dimensions: (  30,  30, 162)
                  (  0.0000000  0.0000000 -1.0000000 )


      isym = 10     inv.  60 deg rotation - cryst. axis [0,0,-1] 

 cryst.   s(10) = (     0          1          0      )
                  (    -1         -1          0      )
                  (     0          0         -1      )

 cart.    s(10) = ( -0.5000000 -0.8660254  0.0000000 )
                  (  0.8660254 -0.5000000  0.0000000 )
                  (  0.0000000  0.0000000 -1.0000000 )


      isym = 11     inv. 180 deg rotation - cryst. axis [0,1,0]  

 cryst.   s(11) = (     1          1          0      )
                  (     0         -1          0      )
                  (     0          0          1      )

 cart.    s(11) = (  0.5000000  0.8660254  0.0000000 )
                  (  0.8660254 -0.5000000  0.0000000 )
                  (  0.0000000  0.0000000  1.0000000 )


      isym = 12     inv. 180 deg rotation - cryst. axis [1,1,0]  

 cryst.   s(12) = (     0         -1          0      )
                  (    -1          0          0      )
                  (     0          0          1      )

 cart.    s(12) = (  0.5000000 -0.8660254  0.0000000 )
                  ( -0.8660254 -0.5000000  0.0000000 )
                  (  0.0000000  0.0000000  1.0000000 )


   Cartesian axes

     site n.     atom                  positions (alat units)
         1           Mo  tau(   1) = (   0.0000000   0.0000000   2.7227867  )
         2           S   tau(   2) = (  -0.0000000   0.5773503   3.2135870  )
         3           S   tau(   3) = (   0.0000000   0.5773503   2.2319864  )

   Crystallographic axes

   Cartesian axes

     site n.     atom                  positions (alat units)
         1           Mo  tau(   1) = (   0.0000000   0.0000000   2.7227867  )
         2           S   tau(   2) = (  -0.0000000   0.5773503   3.2135870  )
         3           S   tau(   3) = (   0.0000000   0.5773503   2.2319864  )

   Crystallographic axes

     site n.     atom                  positions (cryst. coord.)
         1           Mo  tau(   1) = (  0.0000000  0.0000000  0.5000000  )
         2           S   tau(   2) = (  0.3333333  0.6666667  0.5901283  )
         3           S   tau(   3) = (  0.3333333  0.6666667  0.4098717  )

     number of k points=    12  Gaussian smearing, width (Ry)=  0.0100
                       cart. coord. in units 2pi/alat
        k(    1) = (   0.0000000   0.0000000   0.0000000), wk =   0.0246914
        k(    2) = (   0.0000000   0.1283001   0.0000000), wk =   0.1481481
        k(    3) = (   0.0000000   0.2566001   0.0000000), wk =   0.1481481

     site n.     atom                  positions (cryst. coord.)
         1           Mo  tau(   1) = (  0.0000000  0.0000000  0.5000000  )
         2           S   tau(   2) = (  0.3333333  0.6666667  0.5901283  )
         3           S   tau(   3) = (  0.3333333  0.6666667  0.4098717  )

     number of k points=    12  Gaussian smearing, width (Ry)=  0.0100
        k(    4) = (   0.0000000   0.3849002   0.0000000), wk =   0.1481481
                       cart. coord. in units 2pi/alat
        k(    1) = (   0.0000000   0.0000000   0.0000000), wk =   0.0246914
        k(    2) = (   0.0000000   0.1283001   0.0000000), wk =   0.1481481
        k(    3) = (   0.0000000   0.2566001   0.0000000), wk =   0.1481481
        k(    5) = (   0.0000000   0.5132002   0.0000000), wk =   0.1481481
        k(    6) = (   0.1111111   0.1924501   0.0000000), wk =   0.1481481
        k(    7) = (   0.1111111   0.3207501   0.0000000), wk =   0.2962963
        k(    8) = (   0.1111111   0.4490502   0.0000000), wk =   0.2962963
        k(    9) = (   0.1111111   0.5773503   0.0000000), wk =   0.1481481
        k(   10) = (   0.2222222   0.3849002   0.0000000), wk =   0.1481481
        k(    4) = (   0.0000000   0.3849002   0.0000000), wk =   0.1481481
        k(    5) = (   0.0000000   0.5132002   0.0000000), wk =   0.1481481
        k(    6) = (   0.1111111   0.1924501   0.0000000), wk =   0.1481481
        k(    7) = (   0.1111111   0.3207501   0.0000000), wk =   0.2962963
        k(    8) = (   0.1111111   0.4490502   0.0000000), wk =   0.2962963
        k(    9) = (   0.1111111   0.5773503   0.0000000), wk =   0.1481481
        k(   10) = (   0.2222222   0.3849002   0.0000000), wk =   0.1481481
        k(   11) = (   0.2222222   0.5132002   0.0000000), wk =   0.2962963
        k(   11) = (   0.2222222   0.5132002   0.0000000), wk =   0.2962963
        k(   12) = (   0.3333333   0.5773503   0.0000000), wk =   0.0493827

                       cryst. coord.
        k(    1) = (   0.0000000   0.0000000   0.0000000), wk =   0.0246914
        k(    2) = (   0.0000000   0.1111111   0.0000000), wk =   0.1481481
        k(   12) = (   0.3333333   0.5773503   0.0000000), wk =   0.0493827

                       cryst. coord.
        k(    1) = (   0.0000000   0.0000000   0.0000000), wk =   0.0246914
        k(    2) = (   0.0000000   0.1111111   0.0000000), wk =   0.1481481
        k(    3) = (   0.0000000   0.2222222   0.0000000), wk =   0.1481481
        k(    3) = (   0.0000000   0.2222222   0.0000000), wk =   0.1481481
        k(    4) = (   0.0000000   0.3333333   0.0000000), wk =   0.1481481
        k(    5) = (   0.0000000   0.4444444   0.0000000), wk =   0.1481481
        k(    6) = (   0.1111111   0.1111111   0.0000000), wk =   0.1481481
        k(    7) = (   0.1111111   0.2222222   0.0000000), wk =   0.2962963
        k(    8) = (   0.1111111   0.3333333   0.0000000), wk =   0.2962963
        k(    9) = (   0.1111111   0.4444444   0.0000000), wk =   0.1481481
        k(   10) = (   0.2222222   0.2222222   0.0000000), wk =   0.1481481
        k(   11) = (   0.2222222   0.3333333   0.0000000), wk =   0.2962963
        k(   12) = (   0.3333333   0.3333333   0.0000000), wk =   0.0493827
        k(    4) = (   0.0000000   0.3333333   0.0000000), wk =   0.1481481
        k(    5) = (   0.0000000   0.4444444   0.0000000), wk =   0.1481481
        k(    6) = (   0.1111111   0.1111111   0.0000000), wk =   0.1481481
        k(    7) = (   0.1111111   0.2222222   0.0000000), wk =   0.2962963
        k(    8) = (   0.1111111   0.3333333   0.0000000), wk =   0.2962963
        k(    9) = (   0.1111111   0.4444444   0.0000000), wk =   0.1481481
        k(   10) = (   0.2222222   0.2222222   0.0000000), wk =   0.1481481
        k(   11) = (   0.2222222   0.3333333   0.0000000), wk =   0.2962963
        k(   12) = (   0.3333333   0.3333333   0.0000000), wk =   0.0493827

     Dense  grid:   254925 G-vectors     FFT dimensions: (  48,  48, 256)

     Smooth grid:    64451 G-vectors     FFT dimensions: (  30,  30, 162)

     Dense  grid:   254925 G-vectors     FFT dimensions: (  48,  48, 256)

     Smooth grid:    64451 G-vectors     FFT dimensions: (  30,  30, 162)

     Dynamical RAM for                 wfc:       2.09 MB

     Dynamical RAM for     wfc (w. buffer):      27.17 MB

     Dynamical RAM for           str. fact:       7.78 MB

     Dynamical RAM for           local pot:       0.00 MB

     Dynamical RAM for          nlocal pot:       6.64 MB



     Dynamical RAM for                qrad:       3.93 MB

     Dynamical RAM for          rho,v,vnew:      25.17 MB

     Dynamical RAM for               rhoin:       8.39 MB

     Dynamical RAM for                 wfc:       2.09 MB

     Dynamical RAM for     wfc (w. buffer):      27.17 MB

     Dynamical RAM for           str. fact:       7.78 MB

     Dynamical RAM for           local pot:       0.00 MB

     Dynamical RAM for          nlocal pot:       6.64 MB

     Dynamical RAM for                qrad:       3.93 MB

     Dynamical RAM for          rho,v,vnew:      25.17 MB

     Dynamical RAM for               rhoin:       8.39 MB

     Dynamical RAM for            rho*nmix:      62.24 MB

     Dynamical RAM for           G-vectors:      15.08 MB

     Dynamical RAM for          h,s,v(r/c):       0.05 MB

     Dynamical RAM for          <psi|beta>:       0.01 MB
     Dynamical RAM for                 wfc:       2.09 MB

     Dynamical RAM for     wfc (w. buffer):      27.17 MB

     Dynamical RAM for           str. fact:       7.78 MB

     Dynamical RAM for           local pot:       0.00 MB

     Dynamical RAM for          nlocal pot:       6.64 MB

     Dynamical RAM for                qrad:       3.93 MB

     Dynamical RAM for          rho,v,vnew:      25.17 MB

     Dynamical RAM for               rhoin:       8.39 MB

     Dynamical RAM for            rho*nmix:      62.24 MB

     Dynamical RAM for           G-vectors:      15.08 MB

     Dynamical RAM for            rho*nmix:      62.24 MB

     Dynamical RAM for           G-vectors:      15.08 MB

     Dynamical RAM for          h,s,v(r/c):       0.05 MB

     Dynamical RAM for          <psi|beta>:       0.01 MB

     Dynamical RAM for                 psi:       4.18 MB

     Dynamical RAM for                hpsi:       4.18 MB

     Dynamical RAM for                spsi:       4.18 MB

     Dynamical RAM for      wfcinit/wfcrot:       5.17 MB

     Dynamical RAM for           addusdens:     731.29 MB

     Dynamical RAM for          addusforce:     741.02 MB

     Dynamical RAM for         addusstress:     781.86 MB

     Estimated static dynamical RAM per process >     128.33 MB

     Dynamical RAM for          h,s,v(r/c):       0.05 MB

     Dynamical RAM for          <psi|beta>:       0.01 MB

     Dynamical RAM for                 psi:       4.18 MB

     Dynamical RAM for                hpsi:       4.18 MB

     Dynamical RAM for                spsi:       4.18 MB

     Dynamical RAM for      wfcinit/wfcrot:       5.17 MB

     Dynamical RAM for           addusdens:     731.29 MB


     Dynamical RAM for                 wfc:       2.09 MB

     Dynamical RAM for     wfc (w. buffer):      27.17 MB

     Dynamical RAM for           str. fact:       7.78 MB

     Dynamical RAM for           local pot:       0.00 MB

     Dynamical RAM for          nlocal pot:       6.64 MB

     Dynamical RAM for                qrad:       3.93 MB

     Dynamical RAM for          rho,v,vnew:      25.17 MB

     Dynamical RAM for               rhoin:       8.39 MB

     Dynamical RAM for            rho*nmix:      62.24 MB

     Dynamical RAM for           G-vectors:      15.08 MB

     Dynamical RAM for          h,s,v(r/c):       0.05 MB

     Dynamical RAM for                 psi:       4.18 MB

     Dynamical RAM for                hpsi:       4.18 MB

     Dynamical RAM for                spsi:       4.18 MB

     Dynamical RAM for      wfcinit/wfcrot:       5.17 MB

     Dynamical RAM for           addusdens:     731.29 MB

     Dynamical RAM for          addusforce:     741.02 MB

     Dynamical RAM for         addusstress:     781.86 MB

     Estimated static dynamical RAM per process >     128.33 MB
     Estimated max dynamical RAM per process >     972.42 MB

     Estimated max dynamical RAM per process >     972.42 MB
     Dynamical RAM for          addusforce:     741.02 MB

     Dynamical RAM for         addusstress:     781.86 MB

     Estimated static dynamical RAM per process >     128.33 MB

     Dynamical RAM for          <psi|beta>:       0.01 MB

     Dynamical RAM for                 psi:       4.18 MB

     Dynamical RAM for                hpsi:       4.18 MB


     Dynamical RAM for                spsi:       4.18 MB

     Dynamical RAM for      wfcinit/wfcrot:       5.17 MB

     Estimated max dynamical RAM per process >     972.42 MB
     Dynamical RAM for           addusdens:     731.29 MB

     Dynamical RAM for          addusforce:     741.02 MB

     Dynamical RAM for         addusstress:     781.86 MB

     Estimated static dynamical RAM per process >     128.33 MB

     Estimated max dynamical RAM per process >     972.42 MB

     Initial potential from superposition of free atoms

     Initial potential from superposition of free atoms

     Initial potential from superposition of free atoms

     Initial potential from superposition of free atoms

     starting charge      25.9989, renormalised to      26.0000

     starting charge      25.9989, renormalised to      26.0000

     starting charge      25.9989, renormalised to      26.0000

     starting charge      25.9989, renormalised to      26.0000

     negative rho (up, down):  4.559E-05 0.000E+00

     negative rho (up, down):  4.559E-05 0.000E+00

     negative rho (up, down):  4.559E-05 0.000E+00

     negative rho (up, down):  4.559E-05 0.000E+00
     Starting wfcs are   21 randomized atomic wfcs
     Starting wfcs are   21 randomized atomic wfcs
     Starting wfcs are   21 randomized atomic wfcs
     Starting wfcs are   21 randomized atomic wfcs

     total cpu time spent up to now is       22.4 secs

     Self-consistent Calculation

     iteration #  1     ecut=    60.00 Ry     beta= 0.70
     Davidson diagonalization with overlap

---- Real-time Memory Report at c_bands before calling an iterative solver
           832 MiB given to the printing process from OS
             0 MiB allocation reported by mallinfo(arena+hblkhd)
          4046 MiB available memory on the node where the printing process lives
------------------

     total cpu time spent up to now is       22.5 secs

     total cpu time spent up to now is       22.5 secs

     total cpu time spent up to now is       22.5 secs

     Self-consistent Calculation

     Self-consistent Calculation

     iteration #  1     ecut=    60.00 Ry     beta= 0.70

     iteration #  1     ecut=    60.00 Ry     beta= 0.70
     Davidson diagonalization with overlap

---- Real-time Memory Report at c_bands before calling an iterative solver
           827 MiB given to the printing process from OS
             0 MiB allocation reported by mallinfo(arena+hblkhd)
          4038 MiB available memory on the node where the printing process lives
------------------
     Davidson diagonalization with overlap

---- Real-time Memory Report at c_bands before calling an iterative solver
           821 MiB given to the printing process from OS
             0 MiB allocation reported by mallinfo(arena+hblkhd)
          4038 MiB available memory on the node where the printing process lives
------------------

     Self-consistent Calculation

     iteration #  1     ecut=    60.00 Ry     beta= 0.70
     Davidson diagonalization with overlap

---- Real-time Memory Report at c_bands before calling an iterative solver
           828 MiB given to the printing process from OS
             0 MiB allocation reported by mallinfo(arena+hblkhd)
          4038 MiB available memory on the node where the printing process lives
------------------
     ethr =  1.00E-02,  avg # of iterations =  2.1
     ethr =  1.00E-02,  avg # of iterations =  2.1
     ethr =  1.00E-02,  avg # of iterations =  2.1
     ethr =  1.00E-02,  avg # of iterations =  2.1

     Threshold (ethr) on eigenvalues was too large:
     Diagonalizing with lowered threshold

     Davidson diagonalization with overlap

---- Real-time Memory Report at c_bands before calling an iterative solver
           877 MiB given to the printing process from OS
             0 MiB allocation reported by mallinfo(arena+hblkhd)
          1989 MiB available memory on the node where the printing process lives
------------------

     Threshold (ethr) on eigenvalues was too large:
     Diagonalizing with lowered threshold

     Davidson diagonalization with overlap

---- Real-time Memory Report at c_bands before calling an iterative solver
           877 MiB given to the printing process from OS
             0 MiB allocation reported by mallinfo(arena+hblkhd)
          3778 MiB available memory on the node where the printing process lives
------------------

     Threshold (ethr) on eigenvalues was too large:
     Diagonalizing with lowered threshold

     Davidson diagonalization with overlap

---- Real-time Memory Report at c_bands before calling an iterative solver
           877 MiB given to the printing process from OS
             0 MiB allocation reported by mallinfo(arena+hblkhd)
          3778 MiB available memory on the node where the printing process lives
------------------

     Threshold (ethr) on eigenvalues was too large:
     Diagonalizing with lowered threshold

     Davidson diagonalization with overlap

---- Real-time Memory Report at c_bands before calling an iterative solver
           878 MiB given to the printing process from OS
             0 MiB allocation reported by mallinfo(arena+hblkhd)
          3778 MiB available memory on the node where the printing process lives
------------------
     ethr =  3.02E-04,  avg # of iterations =  3.2
     ethr =  3.02E-04,  avg # of iterations =  3.2
     ethr =  3.02E-04,  avg # of iterations =  3.2
     ethr =  3.02E-04,  avg # of iterations =  3.2

     negative rho (up, down):  1.528E-04 0.000E+00

     negative rho (up, down):  1.528E-04 0.000E+00

     negative rho (up, down):  1.528E-04 0.000E+00

     negative rho (up, down):  1.528E-04 0.000E+00

     total cpu time spent up to now is       48.5 secs

     total energy              =    -187.69453697 Ry
     estimated scf accuracy    <       0.10742372 Ry

     iteration #  2     ecut=    60.00 Ry     beta= 0.70
     Davidson diagonalization with overlap

---- Real-time Memory Report at c_bands before calling an iterative solver
           892 MiB given to the printing process from OS
             0 MiB allocation reported by mallinfo(arena+hblkhd)
          1895 MiB available memory on the node where the printing process lives
------------------

     total cpu time spent up to now is       48.6 secs

     total energy              =    -187.69453697 Ry
     estimated scf accuracy    <       0.10742372 Ry

     iteration #  2     ecut=    60.00 Ry     beta= 0.70
     Davidson diagonalization with overlap

---- Real-time Memory Report at c_bands before calling an iterative solver
           893 MiB given to the printing process from OS
             0 MiB allocation reported by mallinfo(arena+hblkhd)
          2505 MiB available memory on the node where the printing process lives
------------------

     total cpu time spent up to now is       48.7 secs

     total energy              =    -187.69453697 Ry
     estimated scf accuracy    <       0.10742372 Ry

     iteration #  2     ecut=    60.00 Ry     beta= 0.70
     Davidson diagonalization with overlap

---- Real-time Memory Report at c_bands before calling an iterative solver
           893 MiB given to the printing process from OS
             0 MiB allocation reported by mallinfo(arena+hblkhd)
          3191 MiB available memory on the node where the printing process lives
------------------

     total cpu time spent up to now is       48.7 secs

     total energy              =    -187.69453697 Ry
     estimated scf accuracy    <       0.10742372 Ry

     iteration #  2     ecut=    60.00 Ry     beta= 0.70
     Davidson diagonalization with overlap

---- Real-time Memory Report at c_bands before calling an iterative solver
           893 MiB given to the printing process from OS
             0 MiB allocation reported by mallinfo(arena+hblkhd)
          3758 MiB available memory on the node where the printing process lives
------------------
     ethr =  4.13E-04,  avg # of iterations =  2.9
     ethr =  4.13E-04,  avg # of iterations =  2.9
     ethr =  4.13E-04,  avg # of iterations =  2.9
     ethr =  4.13E-04,  avg # of iterations =  2.9

     negative rho (up, down):  1.880E-04 0.000E+00

     negative rho (up, down):  1.880E-04 0.000E+00

     negative rho (up, down):  1.880E-04 0.000E+00

     negative rho (up, down):  1.880E-04 0.000E+00

     total cpu time spent up to now is       62.9 secs

     total energy              =    -187.67359454 Ry
     estimated scf accuracy    <       0.22739586 Ry

     iteration #  3     ecut=    60.00 Ry     beta= 0.70
     Davidson diagonalization with overlap

---- Real-time Memory Report at c_bands before calling an iterative solver
           896 MiB given to the printing process from OS
             0 MiB allocation reported by mallinfo(arena+hblkhd)
          1878 MiB available memory on the node where the printing process lives
------------------

     total cpu time spent up to now is       63.0 secs

     total energy              =    -187.67359454 Ry
     estimated scf accuracy    <       0.22739586 Ry

     iteration #  3     ecut=    60.00 Ry     beta= 0.70
     Davidson diagonalization with overlap

---- Real-time Memory Report at c_bands before calling an iterative solver
           895 MiB given to the printing process from OS
             0 MiB allocation reported by mallinfo(arena+hblkhd)
          2468 MiB available memory on the node where the printing process lives
------------------

     total cpu time spent up to now is       63.1 secs

     total energy              =    -187.67359454 Ry
     estimated scf accuracy    <       0.22739586 Ry

     iteration #  3     ecut=    60.00 Ry     beta= 0.70
     Davidson diagonalization with overlap

---- Real-time Memory Report at c_bands before calling an iterative solver
           896 MiB given to the printing process from OS
             0 MiB allocation reported by mallinfo(arena+hblkhd)
          3465 MiB available memory on the node where the printing process lives
------------------

     total cpu time spent up to now is       63.1 secs

     total energy              =    -187.67359454 Ry
     estimated scf accuracy    <       0.22739586 Ry

     iteration #  3     ecut=    60.00 Ry     beta= 0.70
     Davidson diagonalization with overlap

---- Real-time Memory Report at c_bands before calling an iterative solver
           895 MiB given to the printing process from OS
             0 MiB allocation reported by mallinfo(arena+hblkhd)
          3760 MiB available memory on the node where the printing process lives
------------------
     ethr =  4.13E-04,  avg # of iterations =  2.4
     ethr =  4.13E-04,  avg # of iterations =  2.4
     ethr =  4.13E-04,  avg # of iterations =  2.4
     ethr =  4.13E-04,  avg # of iterations =  2.4

     negative rho (up, down):  2.030E-04 0.000E+00

     negative rho (up, down):  2.030E-04 0.000E+00

     negative rho (up, down):  2.030E-04 0.000E+00

     negative rho (up, down):  2.030E-04 0.000E+00

     total cpu time spent up to now is       76.9 secs

     total energy              =    -187.71657478 Ry
     estimated scf accuracy    <       0.11927164 Ry

     iteration #  4     ecut=    60.00 Ry     beta= 0.70
     Davidson diagonalization with overlap

---- Real-time Memory Report at c_bands before calling an iterative solver
           898 MiB given to the printing process from OS
             0 MiB allocation reported by mallinfo(arena+hblkhd)
          1933 MiB available memory on the node where the printing process lives
------------------

     total cpu time spent up to now is       77.2 secs

     total energy              =    -187.71657478 Ry
     estimated scf accuracy    <       0.11927164 Ry

     iteration #  4     ecut=    60.00 Ry     beta= 0.70
     Davidson diagonalization with overlap

---- Real-time Memory Report at c_bands before calling an iterative solver
           898 MiB given to the printing process from OS
             0 MiB allocation reported by mallinfo(arena+hblkhd)
          2812 MiB available memory on the node where the printing process lives
------------------

     total cpu time spent up to now is       77.2 secs

     total energy              =    -187.71657478 Ry
     estimated scf accuracy    <       0.11927164 Ry

     iteration #  4     ecut=    60.00 Ry     beta= 0.70
     Davidson diagonalization with overlap

---- Real-time Memory Report at c_bands before calling an iterative solver
           897 MiB given to the printing process from OS
             0 MiB allocation reported by mallinfo(arena+hblkhd)
          3290 MiB available memory on the node where the printing process lives
------------------

     total cpu time spent up to now is       77.2 secs

     total energy              =    -187.71657478 Ry
     estimated scf accuracy    <       0.11927164 Ry

     iteration #  4     ecut=    60.00 Ry     beta= 0.70
     Davidson diagonalization with overlap

---- Real-time Memory Report at c_bands before calling an iterative solver
           897 MiB given to the printing process from OS
             0 MiB allocation reported by mallinfo(arena+hblkhd)
          3700 MiB available memory on the node where the printing process lives
------------------
     ethr =  4.13E-04,  avg # of iterations =  1.3
     ethr =  4.13E-04,  avg # of iterations =  1.3
     ethr =  4.13E-04,  avg # of iterations =  1.3
     ethr =  4.13E-04,  avg # of iterations =  1.3

     negative rho (up, down):  2.040E-04 0.000E+00

     negative rho (up, down):  2.040E-04 0.000E+00

     negative rho (up, down):  2.040E-04 0.000E+00

     negative rho (up, down):  2.040E-04 0.000E+00

     total cpu time spent up to now is       88.7 secs

     total energy              =    -187.73231096 Ry
     estimated scf accuracy    <       0.00040286 Ry

     iteration #  5     ecut=    60.00 Ry     beta= 0.70
     Davidson diagonalization with overlap

---- Real-time Memory Report at c_bands before calling an iterative solver
           900 MiB given to the printing process from OS
             0 MiB allocation reported by mallinfo(arena+hblkhd)
          2935 MiB available memory on the node where the printing process lives
------------------

     total cpu time spent up to now is       89.5 secs

     total energy              =    -187.73231096 Ry
     estimated scf accuracy    <       0.00040286 Ry

     iteration #  5     ecut=    60.00 Ry     beta= 0.70
     Davidson diagonalization with overlap

---- Real-time Memory Report at c_bands before calling an iterative solver
           900 MiB given to the printing process from OS
             0 MiB allocation reported by mallinfo(arena+hblkhd)
          2554 MiB available memory on the node where the printing process lives
------------------

     total cpu time spent up to now is       89.6 secs

     total energy              =    -187.73231096 Ry
     estimated scf accuracy    <       0.00040286 Ry

     iteration #  5     ecut=    60.00 Ry     beta= 0.70
     Davidson diagonalization with overlap

---- Real-time Memory Report at c_bands before calling an iterative solver
           899 MiB given to the printing process from OS
             0 MiB allocation reported by mallinfo(arena+hblkhd)
          3663 MiB available memory on the node where the printing process lives
------------------

     total cpu time spent up to now is       89.7 secs

     total energy              =    -187.73231096 Ry
     estimated scf accuracy    <       0.00040286 Ry

     iteration #  5     ecut=    60.00 Ry     beta= 0.70
     Davidson diagonalization with overlap

---- Real-time Memory Report at c_bands before calling an iterative solver
           899 MiB given to the printing process from OS
             0 MiB allocation reported by mallinfo(arena+hblkhd)
          3729 MiB available memory on the node where the printing process lives
------------------
     ethr =  1.55E-06,  avg # of iterations =  4.8
     ethr =  1.55E-06,  avg # of iterations =  4.8
     ethr =  1.55E-06,  avg # of iterations =  4.8
     ethr =  1.55E-06,  avg # of iterations =  4.8

     negative rho (up, down):  2.043E-04 0.000E+00

     negative rho (up, down):  2.043E-04 0.000E+00

     negative rho (up, down):  2.043E-04 0.000E+00

     negative rho (up, down):  2.043E-04 0.000E+00

     total cpu time spent up to now is      105.0 secs

     total energy              =    -187.73275762 Ry
     estimated scf accuracy    <       0.00025147 Ry

     iteration #  6     ecut=    60.00 Ry     beta= 0.70
     Davidson diagonalization with overlap

---- Real-time Memory Report at c_bands before calling an iterative solver
           902 MiB given to the printing process from OS
             0 MiB allocation reported by mallinfo(arena+hblkhd)
          2355 MiB available memory on the node where the printing process lives
------------------

     total cpu time spent up to now is      106.2 secs

     total energy              =    -187.73275762 Ry
     estimated scf accuracy    <       0.00025147 Ry

     iteration #  6     ecut=    60.00 Ry     beta= 0.70
     Davidson diagonalization with overlap

---- Real-time Memory Report at c_bands before calling an iterative solver
           902 MiB given to the printing process from OS
             0 MiB allocation reported by mallinfo(arena+hblkhd)
          2518 MiB available memory on the node where the printing process lives
------------------

     total cpu time spent up to now is      106.4 secs

     total energy              =    -187.73275762 Ry
     estimated scf accuracy    <       0.00025147 Ry

     iteration #  6     ecut=    60.00 Ry     beta= 0.70
     Davidson diagonalization with overlap

---- Real-time Memory Report at c_bands before calling an iterative solver
           901 MiB given to the printing process from OS
             0 MiB allocation reported by mallinfo(arena+hblkhd)
          3479 MiB available memory on the node where the printing process lives
------------------

     total cpu time spent up to now is      106.4 secs

     total energy              =    -187.73275762 Ry
     estimated scf accuracy    <       0.00025147 Ry

     iteration #  6     ecut=    60.00 Ry     beta= 0.70
     Davidson diagonalization with overlap

---- Real-time Memory Report at c_bands before calling an iterative solver
           901 MiB given to the printing process from OS
             0 MiB allocation reported by mallinfo(arena+hblkhd)
          3736 MiB available memory on the node where the printing process lives
------------------
     ethr =  9.67E-07,  avg # of iterations =  1.0
     ethr =  9.67E-07,  avg # of iterations =  1.0
     ethr =  9.67E-07,  avg # of iterations =  1.0
     ethr =  9.67E-07,  avg # of iterations =  1.0

     negative rho (up, down):  2.045E-04 0.000E+00

     negative rho (up, down):  2.045E-04 0.000E+00

     negative rho (up, down):  2.045E-04 0.000E+00

     negative rho (up, down):  2.045E-04 0.000E+00

     total cpu time spent up to now is      116.9 secs

     total energy              =    -187.73276028 Ry
     estimated scf accuracy    <       0.00003474 Ry

     iteration #  7     ecut=    60.00 Ry     beta= 0.70
     Davidson diagonalization with overlap

---- Real-time Memory Report at c_bands before calling an iterative solver
           904 MiB given to the printing process from OS
             0 MiB allocation reported by mallinfo(arena+hblkhd)
          2229 MiB available memory on the node where the printing process lives
------------------

     total cpu time spent up to now is      118.5 secs

     total energy              =    -187.73276028 Ry
     estimated scf accuracy    <       0.00003474 Ry

     iteration #  7     ecut=    60.00 Ry     beta= 0.70
     Davidson diagonalization with overlap

---- Real-time Memory Report at c_bands before calling an iterative solver
           904 MiB given to the printing process from OS
             0 MiB allocation reported by mallinfo(arena+hblkhd)
          2526 MiB available memory on the node where the printing process lives
------------------

     total cpu time spent up to now is      118.7 secs

     total energy              =    -187.73276028 Ry
     estimated scf accuracy    <       0.00003474 Ry

     iteration #  7     ecut=    60.00 Ry     beta= 0.70
     Davidson diagonalization with overlap

---- Real-time Memory Report at c_bands before calling an iterative solver
           903 MiB given to the printing process from OS
             0 MiB allocation reported by mallinfo(arena+hblkhd)
          3565 MiB available memory on the node where the printing process lives
------------------

     total cpu time spent up to now is      118.7 secs

     total energy              =    -187.73276028 Ry
     estimated scf accuracy    <       0.00003474 Ry

     iteration #  7     ecut=    60.00 Ry     beta= 0.70
     Davidson diagonalization with overlap

---- Real-time Memory Report at c_bands before calling an iterative solver
           903 MiB given to the printing process from OS
             0 MiB allocation reported by mallinfo(arena+hblkhd)
          3707 MiB available memory on the node where the printing process lives
------------------
     ethr =  1.34E-07,  avg # of iterations =  2.5
     ethr =  1.34E-07,  avg # of iterations =  2.5
     ethr =  1.34E-07,  avg # of iterations =  2.5
     ethr =  1.34E-07,  avg # of iterations =  2.5

     negative rho (up, down):  2.046E-04 0.000E+00

     negative rho (up, down):  2.046E-04 0.000E+00

     negative rho (up, down):  2.046E-04 0.000E+00

     negative rho (up, down):  2.046E-04 0.000E+00

     total cpu time spent up to now is      130.6 secs

     total energy              =    -187.73277003 Ry
     estimated scf accuracy    <       0.00000152 Ry

     iteration #  8     ecut=    60.00 Ry     beta= 0.70
     Davidson diagonalization with overlap

---- Real-time Memory Report at c_bands before calling an iterative solver
           906 MiB given to the printing process from OS
             0 MiB allocation reported by mallinfo(arena+hblkhd)
          2568 MiB available memory on the node where the printing process lives
------------------

     total cpu time spent up to now is      132.6 secs

     total energy              =    -187.73277003 Ry
     estimated scf accuracy    <       0.00000152 Ry

     iteration #  8     ecut=    60.00 Ry     beta= 0.70
     Davidson diagonalization with overlap

---- Real-time Memory Report at c_bands before calling an iterative solver
           906 MiB given to the printing process from OS
             0 MiB allocation reported by mallinfo(arena+hblkhd)
          2540 MiB available memory on the node where the printing process lives
------------------

     total cpu time spent up to now is      132.6 secs

     total energy              =    -187.73277003 Ry
     estimated scf accuracy    <       0.00000152 Ry

     iteration #  8     ecut=    60.00 Ry     beta= 0.70
     Davidson diagonalization with overlap

---- Real-time Memory Report at c_bands before calling an iterative solver
           905 MiB given to the printing process from OS
             0 MiB allocation reported by mallinfo(arena+hblkhd)
          3492 MiB available memory on the node where the printing process lives
------------------

     total cpu time spent up to now is      132.7 secs

     total energy              =    -187.73277003 Ry
     estimated scf accuracy    <       0.00000152 Ry

     iteration #  8     ecut=    60.00 Ry     beta= 0.70
     Davidson diagonalization with overlap

---- Real-time Memory Report at c_bands before calling an iterative solver
           905 MiB given to the printing process from OS
             0 MiB allocation reported by mallinfo(arena+hblkhd)
          3713 MiB available memory on the node where the printing process lives
------------------
     ethr =  5.86E-09,  avg # of iterations =  4.0
     ethr =  5.86E-09,  avg # of iterations =  4.0
     ethr =  5.86E-09,  avg # of iterations =  4.0
     ethr =  5.86E-09,  avg # of iterations =  4.0

     negative rho (up, down):  2.046E-04 0.000E+00

     negative rho (up, down):  2.046E-04 0.000E+00

     negative rho (up, down):  2.046E-04 0.000E+00

     negative rho (up, down):  2.046E-04 0.000E+00

     total cpu time spent up to now is      145.7 secs

     total energy              =    -187.73277080 Ry
     estimated scf accuracy    <       0.00000010 Ry

     iteration #  9     ecut=    60.00 Ry     beta= 0.70
     Davidson diagonalization with overlap

---- Real-time Memory Report at c_bands before calling an iterative solver
           907 MiB given to the printing process from OS
             0 MiB allocation reported by mallinfo(arena+hblkhd)
          2779 MiB available memory on the node where the printing process lives
------------------

     total cpu time spent up to now is      147.6 secs

     total energy              =    -187.73277080 Ry
     estimated scf accuracy    <       0.00000010 Ry

     iteration #  9     ecut=    60.00 Ry     beta= 0.70
     Davidson diagonalization with overlap

---- Real-time Memory Report at c_bands before calling an iterative solver
           908 MiB given to the printing process from OS
             0 MiB allocation reported by mallinfo(arena+hblkhd)
          2521 MiB available memory on the node where the printing process lives
------------------

     total cpu time spent up to now is      147.7 secs

     total energy              =    -187.73277080 Ry
     estimated scf accuracy    <       0.00000010 Ry

     iteration #  9     ecut=    60.00 Ry     beta= 0.70
     Davidson diagonalization with overlap

---- Real-time Memory Report at c_bands before calling an iterative solver
           907 MiB given to the printing process from OS
             0 MiB allocation reported by mallinfo(arena+hblkhd)
          3718 MiB available memory on the node where the printing process lives
------------------

     total cpu time spent up to now is      147.7 secs

     total energy              =    -187.73277080 Ry
     estimated scf accuracy    <       0.00000010 Ry

     iteration #  9     ecut=    60.00 Ry     beta= 0.70
     Davidson diagonalization with overlap

---- Real-time Memory Report at c_bands before calling an iterative solver
           907 MiB given to the printing process from OS
             0 MiB allocation reported by mallinfo(arena+hblkhd)
          3717 MiB available memory on the node where the printing process lives
------------------
     ethr =  3.85E-10,  avg # of iterations =  2.8
     ethr =  3.85E-10,  avg # of iterations =  2.8
     ethr =  3.85E-10,  avg # of iterations =  2.8
     ethr =  3.85E-10,  avg # of iterations =  2.8

     negative rho (up, down):  2.046E-04 0.000E+00

     negative rho (up, down):  2.046E-04 0.000E+00

     negative rho (up, down):  2.046E-04 0.000E+00

     negative rho (up, down):  2.046E-04 0.000E+00

     total cpu time spent up to now is      159.3 secs

     End of self-consistent calculation

          k = 0.0000 0.0000 0.0000 (  8091 PWs)   bands (ev):

   -61.1070 -35.2387 -35.0341 -35.0341 -14.2926 -12.9878  -5.8104  -2.8187
    -2.8187  -1.9803  -1.7151  -1.7151  -0.2111   2.5465   2.5465   2.7957
     2.7957

     occupation numbers 
     1.0000   1.0000   1.0000   1.0000   1.0000   1.0000   1.0000   1.0000
     1.0000   1.0000   1.0000   1.0000   1.0000   0.0000   0.0000   0.0000
     0.0000

          k = 0.0000 0.1283 0.0000 (  8083 PWs)   bands (ev):

   -61.1026 -35.2300 -35.0784 -35.0442 -14.1129 -12.9140  -5.6089  -3.2035
    -2.6832  -2.6317  -1.9901  -1.3040  -0.3143   2.3604   2.3621   2.6003
     2.8482

     occupation numbers 
     1.0000   1.0000   1.0000   1.0000   1.0000   1.0000   1.0000   1.0000
     1.0000   1.0000   1.0000   1.0000   1.0000   0.0000   0.0000   0.0000
     0.0000

          k = 0.0000 0.2566 0.0000 (  8071 PWs)   bands (ev):

   -61.0916 -35.2080 -35.1891 -35.0696 -13.6248 -12.7141  -5.2200  -3.9044
    -3.5544  -2.5505  -2.1433  -1.4300  -0.7787   1.9635   2.2238   2.5429
     3.4288

     occupation numbers 
     1.0000   1.0000   1.0000   1.0000   1.0000   1.0000   1.0000   1.0000
     1.0000   1.0000   1.0000   1.0000   1.0000   0.0000   0.0000   0.0000
     0.0000

          k = 0.0000 0.3849 0.0000 (  8061 PWs)   bands (ev):

   -61.0791 -35.3128 -35.1828 -35.0984 -12.9895 -12.4593  -5.4339  -4.3750
    -4.1023  -3.0521  -1.8276  -1.5793  -1.1744   1.9990   2.1256   3.1743
     3.8714

     occupation numbers 
     1.0000   1.0000   1.0000   1.0000   1.0000   1.0000   1.0000   1.0000
     1.0000   1.0000   1.0000   1.0000   1.0000   0.0000   0.0000   0.0000
     0.0000

          k = 0.0000 0.5132 0.0000 (  8034 PWs)   bands (ev):

   -61.0709 -35.3922 -35.1664 -35.1170 -12.5031 -12.2723  -5.8922  -4.9059
    -4.2307  -3.3318  -2.0498  -1.2333  -0.9217   2.0109   2.4662   3.5993
     4.0696

     occupation numbers 
     1.0000   1.0000   1.0000   1.0000   1.0000   1.0000   1.0000   1.0000
     1.0000   1.0000   1.0000   1.0000   1.0000   0.0000   0.0000   0.0000
     0.0000

          k = 0.1111 0.1925 0.0000 (  8093 PWs)   bands (ev):

   -61.0950 -35.2146 -35.1519 -35.0659 -13.7783 -12.7764  -5.2912  -3.7266
    -3.2111  -2.6544  -2.3307  -1.1365  -0.6077   1.9706   2.2537   2.3187
     3.3767

     occupation numbers 
     1.0000   1.0000   1.0000   1.0000   1.0000   1.0000   1.0000   1.0000
     1.0000   1.0000   1.0000   1.0000   1.0000   0.0000   0.0000   0.0000
     0.0000

          k = 0.1111 0.3208 0.0000 (  8082 PWs)   bands (ev):

   -61.0832 -35.2600 -35.1911 -35.1021 -13.2109 -12.5438  -5.1724  -4.0419
    -3.9911  -3.2533  -2.0742  -1.3770  -1.0221   1.7750   2.2369   2.5995
     3.9228

     occupation numbers 
     1.0000   1.0000   1.0000   1.0000   1.0000   1.0000   1.0000   1.0000
     1.0000   1.0000   1.0000   1.0000   1.0000   0.0000   0.0000   0.0000
     0.0000

          k = 0.1111 0.4491 0.0000 (  8039 PWs)   bands (ev):

   -61.0728 -35.3530 -35.1703 -35.1342 -12.6319 -12.3110  -5.5732  -4.8008
    -4.0707  -3.3827  -2.0436  -1.8375  -0.8692   1.9936   2.3736   3.2143
     4.0837

     occupation numbers 
     1.0000   1.0000   1.0000   1.0000   1.0000   1.0000   1.0000   1.0000
     1.0000   1.0000   1.0000   1.0000   1.0000   0.0000   0.0000   0.0000
     0.0000

          k = 0.1111 0.5774 0.0000 (  8030 PWs)   bands (ev):

   -61.0687 -35.3893 -35.1620 -35.1469 -12.3727 -12.2094  -5.7863  -5.1208
    -4.2075  -3.3747  -2.0594  -1.9594  -0.6204   2.0241   2.6418   3.6106
     3.9298

     occupation numbers 
     1.0000   1.0000   1.0000   1.0000   1.0000   1.0000   1.0000   1.0000
     1.0000   1.0000   1.0000   1.0000   1.0000   0.0000   0.0000   0.0000
     0.0000

          k = 0.2222 0.3849 0.0000 (  8055 PWs)   bands (ev):

   -61.0736 -35.3197 -35.1718 -35.1593 -12.6852 -12.3223  -5.3035  -4.7486
    -3.8487  -3.5109  -2.7248  -1.6066  -0.9015   1.9397   2.3834   2.7875
     4.2694

     occupation numbers 
     1.0000   1.0000   1.0000   1.0000   1.0000   1.0000   1.0000   1.0000
     1.0000   1.0000   1.0000   1.0000   1.0000   0.0000   0.0000   0.0000
     0.0000

          k = 0.2222 0.5132 0.0000 (  8029 PWs)   bands (ev):

   -61.0673 -35.3484 -35.2065 -35.1592 -12.2999 -12.1562  -5.3481  -5.3156
    -4.0060  -3.3079  -3.1443  -2.0739  -0.5229   1.8189   2.9033   3.0053
     4.3987

     occupation numbers 
     1.0000   1.0000   1.0000   1.0000   1.0000   1.0000   1.0000   1.0000
     1.0000   1.0000   1.0000   1.0000   1.0000   0.0000   0.0000   0.0000
     0.0000

          k = 0.3333 0.5774 0.0000 (  7992 PWs)   bands (ev):

   -61.0651 -35.3123 -35.2697 -35.1548 -12.1652 -12.0871  -5.5996  -4.7847
    -4.2665  -3.7586  -3.0746  -2.3572  -0.2292   1.4506   2.8526   3.3229
     4.6432

     occupation numbers 
     1.0000   1.0000   1.0000   1.0000   1.0000   1.0000   1.0000   1.0000
     1.0000   1.0000   1.0000   1.0000   1.0000   0.0000   0.0000   0.0000
     0.0000

     the Fermi energy is     0.6545 ev

!    total energy              =    -187.73277083 Ry
     estimated scf accuracy    <          5.9E-09 Ry
     smearing contrib. (-TS)   =      -0.00000000 Ry
     internal energy E=F+TS    =    -187.73277083 Ry

     The total energy is F=E-TS. E is the sum of the following terms:
     one-electron contribution =    -899.24617157 Ry
     hartree contribution      =     450.73897249 Ry
     xc contribution           =     -36.27106565 Ry
     ewald contribution        =     297.04549390 Ry

     convergence has been achieved in   9 iterations

     total cpu time spent up to now is      162.1 secs

     End of self-consistent calculation

          k = 0.0000 0.0000 0.0000 (  8091 PWs)   bands (ev):

   -61.1070 -35.2387 -35.0341 -35.0341 -14.2926 -12.9878  -5.8104  -2.8187
    -2.8187  -1.9803  -1.7151  -1.7151  -0.2111   2.5465   2.5465   2.7957
     2.7957

     occupation numbers 
     1.0000   1.0000   1.0000   1.0000   1.0000   1.0000   1.0000   1.0000
     1.0000   1.0000   1.0000   1.0000   1.0000   0.0000   0.0000   0.0000
     0.0000

          k = 0.0000 0.1283 0.0000 (  8083 PWs)   bands (ev):

   -61.1026 -35.2300 -35.0784 -35.0442 -14.1129 -12.9140  -5.6089  -3.2035
    -2.6832  -2.6317  -1.9901  -1.3040  -0.3143   2.3604   2.3621   2.6003
     2.8482

     occupation numbers 
     1.0000   1.0000   1.0000   1.0000   1.0000   1.0000   1.0000   1.0000
     1.0000   1.0000   1.0000   1.0000   1.0000   0.0000   0.0000   0.0000
     0.0000

          k = 0.0000 0.2566 0.0000 (  8071 PWs)   bands (ev):

   -61.0916 -35.2080 -35.1891 -35.0696 -13.6248 -12.7141  -5.2200  -3.9044
    -3.5544  -2.5505  -2.1433  -1.4300  -0.7787   1.9635   2.2238   2.5429
     3.4288

     occupation numbers 
     1.0000   1.0000   1.0000   1.0000   1.0000   1.0000   1.0000   1.0000
     1.0000   1.0000   1.0000   1.0000   1.0000   0.0000   0.0000   0.0000
     0.0000

          k = 0.0000 0.3849 0.0000 (  8061 PWs)   bands (ev):

   -61.0791 -35.3128 -35.1828 -35.0984 -12.9895 -12.4593  -5.4339  -4.3750
    -4.1023  -3.0521  -1.8276  -1.5793  -1.1744   1.9990   2.1256   3.1743
     3.8714

     occupation numbers 
     1.0000   1.0000   1.0000   1.0000   1.0000   1.0000   1.0000   1.0000
     1.0000   1.0000   1.0000   1.0000   1.0000   0.0000   0.0000   0.0000
     0.0000

          k = 0.0000 0.5132 0.0000 (  8034 PWs)   bands (ev):

   -61.0709 -35.3922 -35.1664 -35.1170 -12.5031 -12.2723  -5.8922  -4.9059
    -4.2307  -3.3318  -2.0498  -1.2333  -0.9217   2.0109   2.4662   3.5993
     4.0696

     occupation numbers 
     1.0000   1.0000   1.0000   1.0000   1.0000   1.0000   1.0000   1.0000
     1.0000   1.0000   1.0000   1.0000   1.0000   0.0000   0.0000   0.0000
     0.0000

          k = 0.1111 0.1925 0.0000 (  8093 PWs)   bands (ev):

   -61.0950 -35.2146 -35.1519 -35.0659 -13.7783 -12.7764  -5.2912  -3.7266
    -3.2111  -2.6544  -2.3307  -1.1365  -0.6077   1.9706   2.2537   2.3187
     3.3767

     occupation numbers 
     1.0000   1.0000   1.0000   1.0000   1.0000   1.0000   1.0000   1.0000
     1.0000   1.0000   1.0000   1.0000   1.0000   0.0000   0.0000   0.0000
     0.0000

          k = 0.1111 0.3208 0.0000 (  8082 PWs)   bands (ev):

   -61.0832 -35.2600 -35.1911 -35.1021 -13.2109 -12.5438  -5.1724  -4.0419
    -3.9911  -3.2533  -2.0742  -1.3770  -1.0221   1.7750   2.2369   2.5995
     3.9228

     occupation numbers 
     1.0000   1.0000   1.0000   1.0000   1.0000   1.0000   1.0000   1.0000
     1.0000   1.0000   1.0000   1.0000   1.0000   0.0000   0.0000   0.0000
     0.0000

          k = 0.1111 0.4491 0.0000 (  8039 PWs)   bands (ev):

   -61.0728 -35.3530 -35.1703 -35.1342 -12.6319 -12.3110  -5.5732  -4.8008
    -4.0707  -3.3827  -2.0436  -1.8375  -0.8692   1.9936   2.3736   3.2143
     4.0837

     occupation numbers 
     1.0000   1.0000   1.0000   1.0000   1.0000   1.0000   1.0000   1.0000
     1.0000   1.0000   1.0000   1.0000   1.0000   0.0000   0.0000   0.0000
     0.0000

          k = 0.1111 0.5774 0.0000 (  8030 PWs)   bands (ev):

   -61.0687 -35.3893 -35.1620 -35.1469 -12.3727 -12.2094  -5.7863  -5.1208
    -4.2075  -3.3747  -2.0594  -1.9594  -0.6204   2.0241   2.6418   3.6106
     3.9298

     occupation numbers 
     1.0000   1.0000   1.0000   1.0000   1.0000   1.0000   1.0000   1.0000
     1.0000   1.0000   1.0000   1.0000   1.0000   0.0000   0.0000   0.0000
     0.0000

          k = 0.2222 0.3849 0.0000 (  8055 PWs)   bands (ev):

   -61.0736 -35.3197 -35.1718 -35.1593 -12.6852 -12.3223  -5.3035  -4.7486
    -3.8487  -3.5109  -2.7248  -1.6066  -0.9015   1.9397   2.3834   2.7875
     4.2694

     occupation numbers 
     1.0000   1.0000   1.0000   1.0000   1.0000   1.0000   1.0000   1.0000
     1.0000   1.0000   1.0000   1.0000   1.0000   0.0000   0.0000   0.0000
     0.0000

          k = 0.2222 0.5132 0.0000 (  8029 PWs)   bands (ev):

   -61.0673 -35.3484 -35.2065 -35.1592 -12.2999 -12.1562  -5.3481  -5.3156
    -4.0060  -3.3079  -3.1443  -2.0739  -0.5229   1.8189   2.9033   3.0053
     4.3987

     occupation numbers 
     1.0000   1.0000   1.0000   1.0000   1.0000   1.0000   1.0000   1.0000
     1.0000   1.0000   1.0000   1.0000   1.0000   0.0000   0.0000   0.0000
     0.0000

          k = 0.3333 0.5774 0.0000 (  7992 PWs)   bands (ev):

   -61.0651 -35.3123 -35.2697 -35.1548 -12.1652 -12.0871  -5.5996  -4.7847
    -4.2665  -3.7586  -3.0746  -2.3572  -0.2292   1.4506   2.8526   3.3229
     4.6432

     occupation numbers 
     1.0000   1.0000   1.0000   1.0000   1.0000   1.0000   1.0000   1.0000
     1.0000   1.0000   1.0000   1.0000   1.0000   0.0000   0.0000   0.0000
     0.0000

     the Fermi energy is     0.6545 ev

!    total energy              =    -187.73277083 Ry
     estimated scf accuracy    <          5.9E-09 Ry
     smearing contrib. (-TS)   =      -0.00000000 Ry
     internal energy E=F+TS    =    -187.73277083 Ry

     The total energy is F=E-TS. E is the sum of the following terms:
     one-electron contribution =    -899.24617157 Ry

     total cpu time spent up to now is      162.1 secs

     End of self-consistent calculation
     hartree contribution      =     450.73897249 Ry
     xc contribution           =     -36.27106565 Ry
     ewald contribution        =     297.04549390 Ry

     convergence has been achieved in   9 iterations

          k = 0.0000 0.0000 0.0000 (  8091 PWs)   bands (ev):

   -61.1070 -35.2387 -35.0341 -35.0341 -14.2926 -12.9878  -5.8104  -2.8187
    -2.8187  -1.9803  -1.7151  -1.7151  -0.2111   2.5465   2.5465   2.7957
     2.7957

     occupation numbers 
     1.0000   1.0000   1.0000   1.0000   1.0000   1.0000   1.0000   1.0000
     1.0000   1.0000   1.0000   1.0000   1.0000   0.0000   0.0000   0.0000
     0.0000

          k = 0.0000 0.1283 0.0000 (  8083 PWs)   bands (ev):

   -61.1026 -35.2300 -35.0784 -35.0442 -14.1129 -12.9140  -5.6089  -3.2035
    -2.6832  -2.6317  -1.9901  -1.3040  -0.3143   2.3604   2.3621   2.6003
     2.8482

     occupation numbers 
     1.0000   1.0000   1.0000   1.0000   1.0000   1.0000   1.0000   1.0000
     1.0000   1.0000   1.0000   1.0000   1.0000   0.0000   0.0000   0.0000
     0.0000

          k = 0.0000 0.2566 0.0000 (  8071 PWs)   bands (ev):

   -61.0916 -35.2080 -35.1891 -35.0696 -13.6248 -12.7141  -5.2200  -3.9044
    -3.5544  -2.5505  -2.1433  -1.4300  -0.7787   1.9635   2.2238   2.5429
     3.4288

     occupation numbers 
     1.0000   1.0000   1.0000   1.0000   1.0000   1.0000   1.0000   1.0000
     1.0000   1.0000   1.0000   1.0000   1.0000   0.0000   0.0000   0.0000
     0.0000

          k = 0.0000 0.3849 0.0000 (  8061 PWs)   bands (ev):

   -61.0791 -35.3128 -35.1828 -35.0984 -12.9895 -12.4593  -5.4339  -4.3750
    -4.1023  -3.0521  -1.8276  -1.5793  -1.1744   1.9990   2.1256   3.1743
     3.8714

     occupation numbers 
     1.0000   1.0000   1.0000   1.0000   1.0000   1.0000   1.0000   1.0000
     1.0000   1.0000   1.0000   1.0000   1.0000   0.0000   0.0000   0.0000
     0.0000

          k = 0.0000 0.5132 0.0000 (  8034 PWs)   bands (ev):

   -61.0709 -35.3922 -35.1664 -35.1170 -12.5031 -12.2723  -5.8922  -4.9059
    -4.2307  -3.3318  -2.0498  -1.2333  -0.9217   2.0109   2.4662   3.5993
     4.0696

     occupation numbers 
     1.0000   1.0000   1.0000   1.0000   1.0000   1.0000   1.0000   1.0000
     1.0000   1.0000   1.0000   1.0000   1.0000   0.0000   0.0000   0.0000
     0.0000

          k = 0.1111 0.1925 0.0000 (  8093 PWs)   bands (ev):

   -61.0950 -35.2146 -35.1519 -35.0659 -13.7783 -12.7764  -5.2912  -3.7266
    -3.2111  -2.6544  -2.3307  -1.1365  -0.6077   1.9706   2.2537   2.3187
     3.3767

     occupation numbers 
     1.0000   1.0000   1.0000   1.0000   1.0000   1.0000   1.0000   1.0000
     1.0000   1.0000   1.0000   1.0000   1.0000   0.0000   0.0000   0.0000
     0.0000

          k = 0.1111 0.3208 0.0000 (  8082 PWs)   bands (ev):

   -61.0832 -35.2600 -35.1911 -35.1021 -13.2109 -12.5438  -5.1724  -4.0419
    -3.9911  -3.2533  -2.0742  -1.3770  -1.0221   1.7750   2.2369   2.5995
     3.9228

     occupation numbers 
     1.0000   1.0000   1.0000   1.0000   1.0000   1.0000   1.0000   1.0000
     1.0000   1.0000   1.0000   1.0000   1.0000   0.0000   0.0000   0.0000
     0.0000

          k = 0.1111 0.4491 0.0000 (  8039 PWs)   bands (ev):

   -61.0728 -35.3530 -35.1703 -35.1342 -12.6319 -12.3110  -5.5732  -4.8008
    -4.0707  -3.3827  -2.0436  -1.8375  -0.8692   1.9936   2.3736   3.2143
     4.0837

     occupation numbers 
     1.0000   1.0000   1.0000   1.0000   1.0000   1.0000   1.0000   1.0000
     1.0000   1.0000   1.0000   1.0000   1.0000   0.0000   0.0000   0.0000
     0.0000

          k = 0.1111 0.5774 0.0000 (  8030 PWs)   bands (ev):

   -61.0687 -35.3893 -35.1620 -35.1469 -12.3727 -12.2094  -5.7863  -5.1208
    -4.2075  -3.3747  -2.0594  -1.9594  -0.6204   2.0241   2.6418   3.6106
     3.9298

     occupation numbers 
     1.0000   1.0000   1.0000   1.0000   1.0000   1.0000   1.0000   1.0000
     1.0000   1.0000   1.0000   1.0000   1.0000   0.0000   0.0000   0.0000
     0.0000

          k = 0.2222 0.3849 0.0000 (  8055 PWs)   bands (ev):

   -61.0736 -35.3197 -35.1718 -35.1593 -12.6852 -12.3223  -5.3035  -4.7486
    -3.8487  -3.5109  -2.7248  -1.6066  -0.9015   1.9397   2.3834   2.7875
     4.2694

     occupation numbers 
     1.0000   1.0000   1.0000   1.0000   1.0000   1.0000   1.0000   1.0000
     1.0000   1.0000   1.0000   1.0000   1.0000   0.0000   0.0000   0.0000
     0.0000

          k = 0.2222 0.5132 0.0000 (  8029 PWs)   bands (ev):

   -61.0673 -35.3484 -35.2065 -35.1592 -12.2999 -12.1562  -5.3481  -5.3156
    -4.0060  -3.3079  -3.1443  -2.0739  -0.5229   1.8189   2.9033   3.0053
     4.3987

     occupation numbers 
     1.0000   1.0000   1.0000   1.0000   1.0000   1.0000   1.0000   1.0000
     1.0000   1.0000   1.0000   1.0000   1.0000   0.0000   0.0000   0.0000
     0.0000

          k = 0.3333 0.5774 0.0000 (  7992 PWs)   bands (ev):

   -61.0651 -35.3123 -35.2697 -35.1548 -12.1652 -12.0871  -5.5996  -4.7847
    -4.2665  -3.7586  -3.0746  -2.3572  -0.2292   1.4506   2.8526   3.3229
     4.6432

     occupation numbers 
     1.0000   1.0000   1.0000   1.0000   1.0000   1.0000   1.0000   1.0000
     1.0000   1.0000   1.0000   1.0000   1.0000   0.0000   0.0000   0.0000
     0.0000

     the Fermi energy is     0.6545 ev

!    total energy              =    -187.73277083 Ry
     estimated scf accuracy    <          5.9E-09 Ry
     smearing contrib. (-TS)   =      -0.00000000 Ry
     internal energy E=F+TS    =    -187.73277083 Ry

     The total energy is F=E-TS. E is the sum of the following terms:
     one-electron contribution =    -899.24617157 Ry
     hartree contribution      =     450.73897249 Ry
     xc contribution           =     -36.27106565 Ry
     ewald contribution        =     297.04549390 Ry

     convergence has been achieved in   9 iterations

     total cpu time spent up to now is      162.1 secs

     End of self-consistent calculation

          k = 0.0000 0.0000 0.0000 (  8091 PWs)   bands (ev):

   -61.1070 -35.2387 -35.0341 -35.0341 -14.2926 -12.9878  -5.8104  -2.8187
    -2.8187  -1.9803  -1.7151  -1.7151  -0.2111   2.5465   2.5465   2.7957
     2.7957

     occupation numbers 
     1.0000   1.0000   1.0000   1.0000   1.0000   1.0000   1.0000   1.0000
     1.0000   1.0000   1.0000   1.0000   1.0000   0.0000   0.0000   0.0000
     0.0000

          k = 0.0000 0.1283 0.0000 (  8083 PWs)   bands (ev):

   -61.1026 -35.2300 -35.0784 -35.0442 -14.1129 -12.9140  -5.6089  -3.2035
    -2.6832  -2.6317  -1.9901  -1.3040  -0.3143   2.3604   2.3621   2.6003
     2.8482

     occupation numbers 
     1.0000   1.0000   1.0000   1.0000   1.0000   1.0000   1.0000   1.0000
     1.0000   1.0000   1.0000   1.0000   1.0000   0.0000   0.0000   0.0000
     0.0000

          k = 0.0000 0.2566 0.0000 (  8071 PWs)   bands (ev):

   -61.0916 -35.2080 -35.1891 -35.0696 -13.6248 -12.7141  -5.2200  -3.9044
    -3.5544  -2.5505  -2.1433  -1.4300  -0.7787   1.9635   2.2238   2.5429
     3.4288

     occupation numbers 
     1.0000   1.0000   1.0000   1.0000   1.0000   1.0000   1.0000   1.0000
     1.0000   1.0000   1.0000   1.0000   1.0000   0.0000   0.0000   0.0000
     0.0000

          k = 0.0000 0.3849 0.0000 (  8061 PWs)   bands (ev):

   -61.0791 -35.3128 -35.1828 -35.0984 -12.9895 -12.4593  -5.4339  -4.3750
    -4.1023  -3.0521  -1.8276  -1.5793  -1.1744   1.9990   2.1256   3.1743
     3.8714

     occupation numbers 
     1.0000   1.0000   1.0000   1.0000   1.0000   1.0000   1.0000   1.0000
     1.0000   1.0000   1.0000   1.0000   1.0000   0.0000   0.0000   0.0000
     0.0000

          k = 0.0000 0.5132 0.0000 (  8034 PWs)   bands (ev):

   -61.0709 -35.3922 -35.1664 -35.1170 -12.5031 -12.2723  -5.8922  -4.9059
    -4.2307  -3.3318  -2.0498  -1.2333  -0.9217   2.0109   2.4662   3.5993
     4.0696

     occupation numbers 
     1.0000   1.0000   1.0000   1.0000   1.0000   1.0000   1.0000   1.0000
     1.0000   1.0000   1.0000   1.0000   1.0000   0.0000   0.0000   0.0000
     0.0000

          k = 0.1111 0.1925 0.0000 (  8093 PWs)   bands (ev):

   -61.0950 -35.2146 -35.1519 -35.0659 -13.7783 -12.7764  -5.2912  -3.7266
    -3.2111  -2.6544  -2.3307  -1.1365  -0.6077   1.9706   2.2537   2.3187
     3.3767

     occupation numbers 
     1.0000   1.0000   1.0000   1.0000   1.0000   1.0000   1.0000   1.0000
     1.0000   1.0000   1.0000   1.0000   1.0000   0.0000   0.0000   0.0000
     0.0000

          k = 0.1111 0.3208 0.0000 (  8082 PWs)   bands (ev):

   -61.0832 -35.2600 -35.1911 -35.1021 -13.2109 -12.5438  -5.1724  -4.0419
    -3.9911  -3.2533  -2.0742  -1.3770  -1.0221   1.7750   2.2369   2.5995
     3.9228

     occupation numbers 
     1.0000   1.0000   1.0000   1.0000   1.0000   1.0000   1.0000   1.0000
     1.0000   1.0000   1.0000   1.0000   1.0000   0.0000   0.0000   0.0000
     0.0000

          k = 0.1111 0.4491 0.0000 (  8039 PWs)   bands (ev):

   -61.0728 -35.3530 -35.1703 -35.1342 -12.6319 -12.3110  -5.5732  -4.8008
    -4.0707  -3.3827  -2.0436  -1.8375  -0.8692   1.9936   2.3736   3.2143
     4.0837

     occupation numbers 
     1.0000   1.0000   1.0000   1.0000   1.0000   1.0000   1.0000   1.0000
     1.0000   1.0000   1.0000   1.0000   1.0000   0.0000   0.0000   0.0000
     0.0000

          k = 0.1111 0.5774 0.0000 (  8030 PWs)   bands (ev):

   -61.0687 -35.3893 -35.1620 -35.1469 -12.3727 -12.2094  -5.7863  -5.1208
    -4.2075  -3.3747  -2.0594  -1.9594  -0.6204   2.0241   2.6418   3.6106
     3.9298

     occupation numbers 
     1.0000   1.0000   1.0000   1.0000   1.0000   1.0000   1.0000   1.0000
     1.0000   1.0000   1.0000   1.0000   1.0000   0.0000   0.0000   0.0000
     0.0000

          k = 0.2222 0.3849 0.0000 (  8055 PWs)   bands (ev):

   -61.0736 -35.3197 -35.1718 -35.1593 -12.6852 -12.3223  -5.3035  -4.7486
    -3.8487  -3.5109  -2.7248  -1.6066  -0.9015   1.9397   2.3834   2.7875
     4.2694

     occupation numbers 
     1.0000   1.0000   1.0000   1.0000   1.0000   1.0000   1.0000   1.0000
     1.0000   1.0000   1.0000   1.0000   1.0000   0.0000   0.0000   0.0000
     0.0000

          k = 0.2222 0.5132 0.0000 (  8029 PWs)   bands (ev):

   -61.0673 -35.3484 -35.2065 -35.1592 -12.2999 -12.1562  -5.3481  -5.3156
    -4.0060  -3.3079  -3.1443  -2.0739  -0.5229   1.8189   2.9033   3.0053
     4.3987

     occupation numbers 
     1.0000   1.0000   1.0000   1.0000   1.0000   1.0000   1.0000   1.0000
     1.0000   1.0000   1.0000   1.0000   1.0000   0.0000   0.0000   0.0000
     0.0000

          k = 0.3333 0.5774 0.0000 (  7992 PWs)   bands (ev):

   -61.0651 -35.3123 -35.2697 -35.1548 -12.1652 -12.0871  -5.5996  -4.7847
    -4.2665  -3.7586  -3.0746  -2.3572  -0.2292   1.4506   2.8526   3.3229
     4.6432

     occupation numbers 
     1.0000   1.0000   1.0000   1.0000   1.0000   1.0000   1.0000   1.0000
     1.0000   1.0000   1.0000   1.0000   1.0000   0.0000   0.0000   0.0000
     0.0000

     the Fermi energy is     0.6545 ev

!    total energy              =    -187.73277083 Ry
     estimated scf accuracy    <          5.9E-09 Ry
     smearing contrib. (-TS)   =      -0.00000000 Ry
     internal energy E=F+TS    =    -187.73277083 Ry

     The total energy is F=E-TS. E is the sum of the following terms:
     one-electron contribution =    -899.24617157 Ry
     hartree contribution      =     450.73897249 Ry
     xc contribution           =     -36.27106565 Ry
     ewald contribution        =     297.04549390 Ry

     convergence has been achieved in   9 iterations

     negative rho (up, down):  2.046E-04 0.000E+00

     negative rho (up, down):  2.046E-04 0.000E+00

     negative rho (up, down):  2.046E-04 0.000E+00

     negative rho (up, down):  2.046E-04 0.000E+00

     Forces acting on atoms (cartesian axes, Ry/au):

     atom    1 type  1   force =     0.00000000   -0.00000000    0.00000000
     atom    2 type  2   force =     0.00000000    0.00000000   -0.00001398
     atom    3 type  2   force =     0.00000000    0.00000000    0.00001398
     The non-local contrib.  to forces
     atom    1 type  1   force =     0.00000000   -0.00000000    0.00000000
     atom    2 type  2   force =     0.00000000   -0.00000000   -0.27866129
     atom    3 type  2   force =     0.00000000    0.00000000    0.27866129
     The ionic contribution  to forces
     atom    1 type  1   force =    -0.00000000    0.00000005    0.00000000
     atom    2 type  2   force =     0.00000004   -0.00000002   34.37325905
     atom    3 type  2   force =    -0.00000004   -0.00000002  -34.37325905
     The local contribution  to forces
     atom    1 type  1   force =     0.00000000   -0.00000000    0.00000000
     atom    2 type  2   force =     0.00000012   -0.00000007  -34.10906030
     atom    3 type  2   force =    -0.00000012   -0.00000007   34.10906030
     The core correction contribution to forces
     atom    1 type  1   force =     0.00000000    0.00000000    0.00000000
     atom    2 type  2   force =    -0.00000001    0.00000001    0.01428955
     atom    3 type  2   force =     0.00000001    0.00000001   -0.01428955
     The Hubbard contrib.    to forces
     atom    1 type  1   force =     0.00000000    0.00000000    0.00000000
     atom    2 type  2   force =     0.00000000    0.00000000    0.00000000
     atom    3 type  2   force =     0.00000000    0.00000000    0.00000000
     The SCF correction term to forces
     atom    1 type  1   force =     0.00000000   -0.00000000   -0.00000000
     atom    2 type  2   force =     0.00000000   -0.00000000    0.00015902
     atom    3 type  2   force =    -0.00000000   -0.00000000   -0.00015902

     Total force =     0.000020     Total SCF correction =     0.000225
     SCF correction compared to forces is large: reduce conv_thr to get better values


     Computing stress (Cartesian axis) and pressure


     negative rho (up, down):  2.046E-04 0.000E+00

     Forces acting on atoms (cartesian axes, Ry/au):

     atom    1 type  1   force =     0.00000000   -0.00000000    0.00000000
     atom    2 type  2   force =     0.00000000    0.00000000   -0.00001398
     atom    3 type  2   force =     0.00000000    0.00000000    0.00001398
     The non-local contrib.  to forces
     atom    1 type  1   force =     0.00000000    0.00000000    0.00000000
     atom    2 type  2   force =     0.00000000    0.00000000   -0.27866129
     atom    3 type  2   force =     0.00000000    0.00000000    0.27866129
     The ionic contribution  to forces
     atom    1 type  1   force =    -0.00000000    0.00000005    0.00000000
     atom    2 type  2   force =     0.00000004   -0.00000002   34.37325905
     atom    3 type  2   force =    -0.00000004   -0.00000002  -34.37325905
     The local contribution  to forces
     atom    1 type  1   force =     0.00000000   -0.00000000    0.00000000
     atom    2 type  2   force =     0.00000012   -0.00000007  -34.10906030
     atom    3 type  2   force =    -0.00000012   -0.00000007   34.10906030
     The core correction contribution to forces
     atom    1 type  1   force =     0.00000000    0.00000000    0.00000000
     atom    2 type  2   force =    -0.00000001    0.00000001    0.01428955
     atom    3 type  2   force =     0.00000001    0.00000001   -0.01428955
     The Hubbard contrib.    to forces
     atom    1 type  1   force =     0.00000000    0.00000000    0.00000000
     atom    2 type  2   force =     0.00000000    0.00000000    0.00000000
     atom    3 type  2   force =     0.00000000    0.00000000    0.00000000
     The SCF correction term to forces
     atom    1 type  1   force =     0.00000000   -0.00000000   -0.00000000
     atom    2 type  2   force =     0.00000000   -0.00000000    0.00015902
     atom    3 type  2   force =    -0.00000000   -0.00000000   -0.00015902

     Total force =     0.000020     Total SCF correction =     0.000225
     SCF correction compared to forces is large: reduce conv_thr to get better values


     Computing stress (Cartesian axis) and pressure


     Forces acting on atoms (cartesian axes, Ry/au):

     atom    1 type  1   force =     0.00000000   -0.00000000    0.00000000
     atom    2 type  2   force =     0.00000000    0.00000000   -0.00001398
     atom    3 type  2   force =     0.00000000    0.00000000    0.00001398
     The non-local contrib.  to forces
     atom    1 type  1   force =     0.00000000   -0.00000000    0.00000000
     atom    2 type  2   force =     0.00000000    0.00000000   -0.27866129
     atom    3 type  2   force =     0.00000000    0.00000000    0.27866129
     The ionic contribution  to forces
     atom    1 type  1   force =    -0.00000000    0.00000005    0.00000000
     atom    2 type  2   force =     0.00000004   -0.00000002   34.37325905
     atom    3 type  2   force =    -0.00000004   -0.00000002  -34.37325905
     The local contribution  to forces
     atom    1 type  1   force =     0.00000000   -0.00000000    0.00000000
     atom    2 type  2   force =     0.00000012   -0.00000007  -34.10906030
     atom    3 type  2   force =    -0.00000012   -0.00000007   34.10906030
     The core correction contribution to forces
     atom    1 type  1   force =     0.00000000    0.00000000    0.00000000
     atom    2 type  2   force =    -0.00000001    0.00000001    0.01428955
     atom    3 type  2   force =     0.00000001    0.00000001   -0.01428955
     The Hubbard contrib.    to forces
     atom    1 type  1   force =     0.00000000    0.00000000    0.00000000
     atom    2 type  2   force =     0.00000000    0.00000000    0.00000000
     atom    3 type  2   force =     0.00000000    0.00000000    0.00000000
     The SCF correction term to forces
     atom    1 type  1   force =     0.00000000   -0.00000000   -0.00000000
     atom    2 type  2   force =     0.00000000   -0.00000000    0.00015902
     atom    3 type  2   force =    -0.00000000   -0.00000000   -0.00015902

     Total force =     0.000020     Total SCF correction =     0.000225
     SCF correction compared to forces is large: reduce conv_thr to get better values


     Computing stress (Cartesian axis) and pressure


     Forces acting on atoms (cartesian axes, Ry/au):

     atom    1 type  1   force =     0.00000000    0.00000000    0.00000000
     atom    2 type  2   force =     0.00000000   -0.00000000   -0.00001398
     atom    3 type  2   force =     0.00000000    0.00000000    0.00001398
     The non-local contrib.  to forces
     atom    1 type  1   force =     0.00000000    0.00000000    0.00000000
     atom    2 type  2   force =     0.00000000    0.00000000   -0.27866129
     atom    3 type  2   force =     0.00000000    0.00000000    0.27866129
     The ionic contribution  to forces
     atom    1 type  1   force =    -0.00000000    0.00000005    0.00000000
     atom    2 type  2   force =     0.00000004   -0.00000002   34.37325905
     atom    3 type  2   force =    -0.00000004   -0.00000002  -34.37325905
     The local contribution  to forces
     atom    1 type  1   force =     0.00000000   -0.00000000    0.00000000
     atom    2 type  2   force =     0.00000012   -0.00000007  -34.10906030
     atom    3 type  2   force =    -0.00000012   -0.00000007   34.10906030
     The core correction contribution to forces
     atom    1 type  1   force =     0.00000000    0.00000000    0.00000000
     atom    2 type  2   force =    -0.00000001    0.00000001    0.01428955
     atom    3 type  2   force =     0.00000001    0.00000001   -0.01428955
     The Hubbard contrib.    to forces
     atom    1 type  1   force =     0.00000000    0.00000000    0.00000000
     atom    2 type  2   force =     0.00000000    0.00000000    0.00000000
     atom    3 type  2   force =     0.00000000    0.00000000    0.00000000
     The SCF correction term to forces
     atom    1 type  1   force =    -0.00000000   -0.00000000   -0.00000000
     atom    2 type  2   force =     0.00000000   -0.00000000    0.00015902
     atom    3 type  2   force =    -0.00000000   -0.00000000   -0.00015902

     Total force =     0.000020     Total SCF correction =     0.000225
     SCF correction compared to forces is large: reduce conv_thr to get better values


     Computing stress (Cartesian axis) and pressure


     negative rho (up, down):  2.046E-04 0.000E+00

     negative rho (up, down):  2.046E-04 0.000E+00

     negative rho (up, down):  2.046E-04 0.000E+00
          total   stress  (Ry/bohr**3)                   (kbar)     P=        0.06
   0.00000040   0.00000000   0.00000000            0.06        0.00        0.00
   0.00000000   0.00000040   0.00000000            0.00        0.06        0.00
   0.00000000   0.00000000   0.00000040            0.00        0.00        0.06

     kinetic stress (kbar)   4239.78      0.00     -0.00
                                0.00   4239.78      0.00
                               -0.00      0.00   4291.46

     local   stress (kbar)-126943.19     -0.00     -0.00
                               -0.00-126943.19     -0.00
                               -0.00     -0.00 124572.97

     nonloc. stress (kbar)   4466.36      0.00      0.00
                                0.00   4466.36      0.00
                                0.00      0.00   4479.35

     hartree stress (kbar)  62203.66      0.00      0.00
                                0.00  62203.66      0.00
                                0.00      0.00 -59816.43

     exc-cor stress (kbar)    318.82     -0.00      0.00
                               -0.00    318.82     -0.00
                                0.00     -0.00    317.95

     corecor stress (kbar)  -1660.28      0.00     -0.00
                                0.00  -1660.28      0.00
                               -0.00      0.00  -1662.06

     ewald   stress (kbar)  57374.90      0.00      0.00
                                0.00  57374.90     -0.00
                                0.00     -0.00 -72183.19

     hubbard stress (kbar)      0.00      0.00      0.00
                                0.00      0.00      0.00
                                0.00      0.00      0.00

     DFT-D   stress (kbar)      0.00      0.00      0.00
                                0.00      0.00      0.00
                                0.00      0.00      0.00

     XDM     stress (kbar)      0.00      0.00      0.00
                                0.00      0.00      0.00
                                0.00      0.00      0.00

     dft-nl  stress (kbar)      0.00      0.00      0.00
                                0.00      0.00      0.00
                                0.00      0.00      0.00

     TS-vdW  stress (kbar)      0.00      0.00      0.00
                                0.00      0.00      0.00
                                0.00      0.00      0.00

     MDB     stress (kbar)      0.00      0.00      0.00
                                0.00      0.00      0.00
                                0.00      0.00      0.00

     3D-RISM stress (kbar)      0.00      0.00      0.00
                                0.00      0.00      0.00
                                0.00      0.00      0.00


     Writing all to output data dir ./tmp/pwscf.save/

     init_run     :     17.14s CPU     22.24s WALL (       1 calls)
     electrons    :    119.03s CPU    136.90s WALL (       1 calls)
     forces       :      5.84s CPU      7.09s WALL (       1 calls)
     stress       :     14.67s CPU     17.86s WALL (       1 calls)

     Called by init_run:
     wfcinit      :      2.60s CPU      2.64s WALL (       1 calls)
     wfcinit:atom :      0.04s CPU      0.04s WALL (      12 calls)
     wfcinit:wfcr :      2.41s CPU      2.45s WALL (      12 calls)
     potinit      :      2.75s CPU      3.06s WALL (       1 calls)
     hinit0       :      2.96s CPU      3.26s WALL (       1 calls)

     Called by electrons:
     c_bands      :     57.55s CPU     58.11s WALL (      10 calls)
     sum_band     :     40.94s CPU     48.91s WALL (      10 calls)
     v_of_rho     :      5.28s CPU      5.93s WALL (      10 calls)
     v_h          :      0.28s CPU      0.29s WALL (      10 calls)
     v_xc         :      5.62s CPU      6.38s WALL (      12 calls)
     newd         :     24.71s CPU     38.04s WALL (      10 calls)
     mix_rho      :      0.46s CPU      0.49s WALL (      10 calls)

     Called by c_bands:
     init_us_2    :      1.00s CPU      1.02s WALL (     276 calls)
     init_us_2:cp :      1.00s CPU      1.02s WALL (     276 calls)
     cegterg      :     55.75s CPU     56.30s WALL (     120 calls)

     Called by sum_band:
     sum_band:wei :      0.00s CPU      0.00s WALL (      10 calls)
     sum_band:loo :     11.14s CPU     11.28s WALL (      10 calls)
     sum_band:buf :      0.08s CPU      0.08s WALL (     120 calls)
     sum_band:ini :      0.43s CPU      0.43s WALL (     120 calls)
     sum_band:cal :      2.40s CPU      2.42s WALL (     120 calls)
     sum_band:bec :      0.00s CPU      0.00s WALL (     120 calls)
     addusdens    :     29.44s CPU     37.27s WALL (      10 calls)
                                        0.00s GPU  (      10 calls)
     addusd:skk   :      0.04s CPU      0.05s WALL (      20 calls)
                                        0.00s GPU  (      20 calls)

     Called by *egterg:
     cdiaghg      :      0.15s CPU      0.17s WALL (     433 calls)
     cegterg:over :      2.61s CPU      2.64s WALL (     325 calls)
     cegterg:upda :      1.83s CPU      1.85s WALL (     325 calls)
     cegterg:last :      4.31s CPU      4.36s WALL (     243 calls)
     h_psi        :     42.26s CPU     42.65s WALL (     457 calls)
     s_psi        :      5.40s CPU      5.45s WALL (     457 calls)
     g_psi        :      0.11s CPU      0.11s WALL (     325 calls)

     Called by h_psi:
     h_psi:calbec :      6.56s CPU      6.61s WALL (     457 calls)
     vloc_psi     :     29.84s CPU     30.13s WALL (     457 calls)
     add_vuspsi   :      5.68s CPU      5.73s WALL (     457 calls)

     General routines
     calbec       :     10.12s CPU     10.21s WALL (     637 calls)
     fft          :      2.91s CPU      3.11s WALL (     154 calls)
     ffts         :      0.31s CPU      0.31s WALL (      20 calls)
     fftw         :     18.95s CPU     19.14s WALL (   13384 calls)
     interpolate  :      0.48s CPU      0.48s WALL (      10 calls)


     PWSCF        :   2m36.87s CPU   3m 4.45s WALL


   This run was terminated on:  22: 4:55   8Apr2026            

=------------------------------------------------------------------------------=
   JOB DONE.
=------------------------------------------------------------------------------=
          total   stress  (Ry/bohr**3)                   (kbar)     P=        0.06
   0.00000040   0.00000000   0.00000000            0.06        0.00        0.00
   0.00000000   0.00000040  -0.00000000            0.00        0.06       -0.00
   0.00000000   0.00000000   0.00000040            0.00        0.00        0.06

     kinetic stress (kbar)   4239.78      0.00      0.00
                                0.00   4239.78      0.00
                                0.00     -0.00   4291.46

     local   stress (kbar)-126943.19     -0.00     -0.00
                               -0.00-126943.19     -0.00
                               -0.00     -0.00 124572.97

     nonloc. stress (kbar)   4466.36     -0.00      0.00
                               -0.00   4466.36      0.00
                                0.00      0.00   4479.35

     hartree stress (kbar)  62203.66     -0.00      0.00
                               -0.00  62203.66      0.00
                                0.00      0.00 -59816.43

     exc-cor stress (kbar)    318.82     -0.00      0.00
                               -0.00    318.82     -0.00
                                0.00     -0.00    317.95

     corecor stress (kbar)  -1660.28      0.00     -0.00
                                0.00  -1660.28      0.00
                               -0.00      0.00  -1662.06

     ewald   stress (kbar)  57374.90      0.00      0.00
                                0.00  57374.90     -0.00
                                0.00     -0.00 -72183.19

     hubbard stress (kbar)      0.00      0.00      0.00
                                0.00      0.00      0.00
                                0.00      0.00      0.00

     DFT-D   stress (kbar)      0.00      0.00      0.00
                                0.00      0.00      0.00
                                0.00      0.00      0.00

     XDM     stress (kbar)      0.00      0.00      0.00
                                0.00      0.00      0.00
                                0.00      0.00      0.00

     dft-nl  stress (kbar)      0.00      0.00      0.00
                                0.00      0.00      0.00
                                0.00      0.00      0.00

     TS-vdW  stress (kbar)      0.00      0.00      0.00
                                0.00      0.00      0.00
                                0.00      0.00      0.00

     MDB     stress (kbar)      0.00      0.00      0.00
                                0.00      0.00      0.00
                                0.00      0.00      0.00

     3D-RISM stress (kbar)      0.00      0.00      0.00
                                0.00      0.00      0.00
                                0.00      0.00      0.00


     Writing all to output data dir ./tmp/pwscf.save/
          total   stress  (Ry/bohr**3)                   (kbar)     P=        0.06
   0.00000040  -0.00000000   0.00000000            0.06       -0.00        0.00
  -0.00000000   0.00000040  -0.00000000           -0.00        0.06       -0.00
   0.00000000  -0.00000000   0.00000040            0.00       -0.00        0.06

     kinetic stress (kbar)   4239.78      0.00     -0.00
                                0.00   4239.78      0.00
                               -0.00      0.00   4291.46

     local   stress (kbar)-126943.19     -0.00     -0.00
                               -0.00-126943.19     -0.00
                               -0.00     -0.00 124572.97

     nonloc. stress (kbar)   4466.36      0.00      0.00
                                0.00   4466.36     -0.00
                                0.00     -0.00   4479.35

     hartree stress (kbar)  62203.66     -0.00      0.00
                               -0.00  62203.66      0.00
                                0.00      0.00 -59816.43

     exc-cor stress (kbar)    318.82     -0.00      0.00
                               -0.00    318.82     -0.00
                                0.00     -0.00    317.95

     corecor stress (kbar)  -1660.28      0.00     -0.00
                                0.00  -1660.28      0.00
                               -0.00      0.00  -1662.06

     ewald   stress (kbar)  57374.90      0.00      0.00
                                0.00  57374.90     -0.00
                                0.00     -0.00 -72183.19

     hubbard stress (kbar)      0.00      0.00      0.00
                                0.00      0.00      0.00
                                0.00      0.00      0.00

     DFT-D   stress (kbar)      0.00      0.00      0.00
                                0.00      0.00      0.00
                                0.00      0.00      0.00

     XDM     stress (kbar)      0.00      0.00      0.00
                                0.00      0.00      0.00
                                0.00      0.00      0.00

     dft-nl  stress (kbar)      0.00      0.00      0.00
                                0.00      0.00      0.00
                                0.00      0.00      0.00

     TS-vdW  stress (kbar)      0.00      0.00      0.00
                                0.00      0.00      0.00
                                0.00      0.00      0.00

     MDB     stress (kbar)      0.00      0.00      0.00
                                0.00      0.00      0.00
                                0.00      0.00      0.00

     3D-RISM stress (kbar)      0.00      0.00      0.00
                                0.00      0.00      0.00
                                0.00      0.00      0.00


     Writing all to output data dir ./tmp/pwscf.save/
          total   stress  (Ry/bohr**3)                   (kbar)     P=        0.06
   0.00000040   0.00000000   0.00000000            0.06        0.00        0.00
   0.00000000   0.00000040  -0.00000000            0.00        0.06       -0.00
   0.00000000  -0.00000000   0.00000040            0.00       -0.00        0.06

     kinetic stress (kbar)   4239.78      0.00      0.00
                                0.00   4239.78      0.00
                                0.00      0.00   4291.46

     local   stress (kbar)-126943.19     -0.00     -0.00
                               -0.00-126943.19     -0.00
                               -0.00     -0.00 124572.97

     nonloc. stress (kbar)   4466.36     -0.00      0.00
                               -0.00   4466.36     -0.00
                                0.00     -0.00   4479.35

     hartree stress (kbar)  62203.66     -0.00     -0.00
                               -0.00  62203.66      0.00
                               -0.00      0.00 -59816.43

     exc-cor stress (kbar)    318.82     -0.00      0.00
                               -0.00    318.82     -0.00
                                0.00     -0.00    317.95

     corecor stress (kbar)  -1660.28      0.00     -0.00
                                0.00  -1660.28      0.00
                               -0.00      0.00  -1662.06

     ewald   stress (kbar)  57374.90      0.00      0.00
                                0.00  57374.90     -0.00
                                0.00     -0.00 -72183.19

     hubbard stress (kbar)      0.00      0.00      0.00
                                0.00      0.00      0.00
                                0.00      0.00      0.00

     DFT-D   stress (kbar)      0.00      0.00      0.00
                                0.00      0.00      0.00
                                0.00      0.00      0.00

     XDM     stress (kbar)      0.00      0.00      0.00
                                0.00      0.00      0.00
                                0.00      0.00      0.00

     dft-nl  stress (kbar)      0.00      0.00      0.00
                                0.00      0.00      0.00
                                0.00      0.00      0.00

     TS-vdW  stress (kbar)      0.00      0.00      0.00
                                0.00      0.00      0.00
                                0.00      0.00      0.00

     MDB     stress (kbar)      0.00      0.00      0.00
                                0.00      0.00      0.00
                                0.00      0.00      0.00

     3D-RISM stress (kbar)      0.00      0.00      0.00
                                0.00      0.00      0.00
                                0.00      0.00      0.00


     Writing all to output data dir ./tmp/pwscf.save/

     init_run     :     16.72s CPU     22.29s WALL (       1 calls)
     electrons    :    121.35s CPU    139.62s WALL (       1 calls)
     forces       :      5.18s CPU      6.21s WALL (       1 calls)
     stress       :     15.21s CPU     18.57s WALL (       1 calls)

     Called by init_run:
     wfcinit      :      2.63s CPU      2.64s WALL (       1 calls)
     wfcinit:atom :      0.04s CPU      0.04s WALL (      12 calls)
     wfcinit:wfcr :      2.45s CPU      2.45s WALL (      12 calls)
     potinit      :      2.75s CPU      3.10s WALL (       1 calls)
     hinit0       :      2.89s CPU      3.25s WALL (       1 calls)

     Called by electrons:
     c_bands      :     57.01s CPU     57.81s WALL (      10 calls)
     sum_band     :     44.28s CPU     52.50s WALL (      10 calls)
     v_of_rho     :      5.09s CPU      5.79s WALL (      10 calls)
     v_h          :      0.27s CPU      0.29s WALL (      10 calls)
     v_xc         :      5.53s CPU      6.32s WALL (      12 calls)
     newd         :     24.07s CPU     37.65s WALL (      10 calls)
     mix_rho      :      0.46s CPU      0.50s WALL (      10 calls)

     Called by c_bands:
     init_us_2    :      1.01s CPU      1.03s WALL (     276 calls)
     init_us_2:cp :      1.01s CPU      1.03s WALL (     276 calls)
     cegterg      :     55.25s CPU     56.02s WALL (     120 calls)

     Called by sum_band:
     sum_band:wei :      0.00s CPU      0.00s WALL (      10 calls)
     sum_band:loo :     12.54s CPU     12.58s WALL (      10 calls)
     sum_band:buf :      0.09s CPU      0.09s WALL (     120 calls)
     sum_band:ini :      0.46s CPU      0.46s WALL (     120 calls)
     sum_band:cal :      2.79s CPU      2.80s WALL (     120 calls)
     sum_band:bec :      0.00s CPU      0.00s WALL (     120 calls)
     addusdens    :     31.38s CPU     39.57s WALL (      10 calls)
                                        0.00s GPU  (      10 calls)
     addusd:skk   :      0.04s CPU      0.04s WALL (      20 calls)
                                        0.00s GPU  (      20 calls)

     Called by *egterg:
     cdiaghg      :      0.15s CPU      0.17s WALL (     433 calls)
     cegterg:over :      2.66s CPU      2.69s WALL (     325 calls)
     cegterg:upda :      1.87s CPU      1.90s WALL (     325 calls)
     cegterg:last :      4.43s CPU      4.48s WALL (     243 calls)
     h_psi        :     41.67s CPU     42.25s WALL (     457 calls)
     s_psi        :      5.35s CPU      5.41s WALL (     457 calls)
     g_psi        :      0.11s CPU      0.11s WALL (     325 calls)

     Called by h_psi:
     h_psi:calbec :      6.42s CPU      6.48s WALL (     457 calls)
     vloc_psi     :     29.62s CPU     30.07s WALL (     457 calls)
     add_vuspsi   :      5.43s CPU      5.49s WALL (     457 calls)

     General routines
     calbec       :     10.25s CPU     10.33s WALL (     637 calls)
     fft          :      2.92s CPU      3.11s WALL (     154 calls)
     ffts         :      0.31s CPU      0.31s WALL (      20 calls)
     fftw         :     18.91s CPU     19.15s WALL (   13384 calls)
     interpolate  :      0.47s CPU      0.49s WALL (      10 calls)


     PWSCF        :   2m38.63s CPU   3m 6.99s WALL


   This run was terminated on:  22: 4:57   8Apr2026            

=------------------------------------------------------------------------------=
   JOB DONE.
=------------------------------------------------------------------------------=

     init_run     :     16.30s CPU     22.29s WALL (       1 calls)
     electrons    :    118.13s CPU    139.63s WALL (       1 calls)
     forces       :      5.19s CPU      6.20s WALL (       1 calls)
     stress       :     15.20s CPU     18.62s WALL (       1 calls)

     Called by init_run:
     wfcinit      :      2.60s CPU      2.60s WALL (       1 calls)
     wfcinit:atom :      0.04s CPU      0.05s WALL (      12 calls)
     wfcinit:wfcr :      2.40s CPU      2.40s WALL (      12 calls)
     potinit      :      2.65s CPU      3.12s WALL (       1 calls)
     hinit0       :      2.91s CPU      3.25s WALL (       1 calls)

     Called by electrons:
     c_bands      :     56.25s CPU     57.73s WALL (      10 calls)
     sum_band     :     43.01s CPU     52.78s WALL (      10 calls)
     v_of_rho     :      4.79s CPU      5.72s WALL (      10 calls)
     v_h          :      0.26s CPU      0.29s WALL (      10 calls)
     v_xc         :      5.28s CPU      6.26s WALL (      12 calls)
     newd         :     22.78s CPU     37.61s WALL (      10 calls)
     mix_rho      :      0.37s CPU      0.40s WALL (      10 calls)

     Called by c_bands:
     init_us_2    :      1.04s CPU      1.07s WALL (     276 calls)
     init_us_2:cp :      1.04s CPU      1.06s WALL (     276 calls)
     cegterg      :     54.45s CPU     55.89s WALL (     120 calls)

     Called by sum_band:
     sum_band:wei :      0.00s CPU      0.00s WALL (      10 calls)
     sum_band:loo :     12.45s CPU     12.63s WALL (      10 calls)
     sum_band:buf :      0.09s CPU      0.09s WALL (     120 calls)
     sum_band:ini :      0.46s CPU      0.46s WALL (     120 calls)
     sum_band:cal :      2.69s CPU      2.72s WALL (     120 calls)
     sum_band:bec :      0.00s CPU      0.00s WALL (     120 calls)
     addusdens    :     30.25s CPU     39.82s WALL (      10 calls)
                                        0.00s GPU  (      10 calls)
     addusd:skk   :      0.05s CPU      0.05s WALL (      20 calls)
                                        0.00s GPU  (      20 calls)

     Called by *egterg:
     cdiaghg      :      0.15s CPU      0.16s WALL (     433 calls)
     cegterg:over :      2.64s CPU      2.70s WALL (     325 calls)
     cegterg:upda :      1.92s CPU      1.97s WALL (     325 calls)
     cegterg:last :      4.42s CPU      4.52s WALL (     243 calls)
     h_psi        :     40.80s CPU     41.87s WALL (     457 calls)
     s_psi        :      5.32s CPU      5.44s WALL (     457 calls)
     g_psi        :      0.11s CPU      0.11s WALL (     325 calls)

     Called by h_psi:
     h_psi:calbec :      5.83s CPU      5.96s WALL (     457 calls)
     vloc_psi     :     29.68s CPU     30.48s WALL (     457 calls)
     add_vuspsi   :      5.08s CPU      5.21s WALL (     457 calls)

     General routines
     calbec       :      9.60s CPU      9.76s WALL (     637 calls)
     fft          :      2.68s CPU      2.79s WALL (     154 calls)
     ffts         :      0.31s CPU      0.31s WALL (      20 calls)
     fftw         :     18.90s CPU     19.36s WALL (   13384 calls)
     interpolate  :      0.45s CPU      0.47s WALL (      10 calls)


     PWSCF        :   2m34.98s CPU   3m 7.03s WALL


   This run was terminated on:  22: 4:57   8Apr2026            

=------------------------------------------------------------------------------=
   JOB DONE.
=------------------------------------------------------------------------------=

     init_run     :     16.25s CPU     22.30s WALL (       1 calls)
     electrons    :    121.70s CPU    139.63s WALL (       1 calls)
     forces       :      4.93s CPU      6.20s WALL (       1 calls)
     stress       :     14.80s CPU     18.61s WALL (       1 calls)

     Called by init_run:
     wfcinit      :      2.62s CPU      2.63s WALL (       1 calls)
     wfcinit:atom :      0.04s CPU      0.04s WALL (      12 calls)
     wfcinit:wfcr :      2.42s CPU      2.43s WALL (      12 calls)
     potinit      :      2.58s CPU      3.12s WALL (       1 calls)
     hinit0       :      2.83s CPU      3.26s WALL (       1 calls)

     Called by electrons:
     c_bands      :     57.01s CPU     57.66s WALL (      10 calls)
     sum_band     :     44.45s CPU     52.45s WALL (      10 calls)
     v_of_rho     :      4.82s CPU      5.73s WALL (      10 calls)
     v_h          :      0.20s CPU      0.22s WALL (      10 calls)
     v_xc         :      5.27s CPU      6.33s WALL (      12 calls)
     newd         :     24.20s CPU     38.03s WALL (      10 calls)
     mix_rho      :      0.47s CPU      0.48s WALL (      10 calls)

     Called by c_bands:
     init_us_2    :      1.07s CPU      1.10s WALL (     276 calls)
     init_us_2:cp :      1.07s CPU      1.09s WALL (     276 calls)
     cegterg      :     55.22s CPU     55.85s WALL (     120 calls)

     Called by sum_band:
     sum_band:wei :      0.00s CPU      0.00s WALL (      10 calls)
     sum_band:loo :     12.60s CPU     12.64s WALL (      10 calls)
     sum_band:buf :      0.09s CPU      0.09s WALL (     120 calls)
     sum_band:ini :      0.49s CPU      0.49s WALL (     120 calls)
     sum_band:cal :      2.63s CPU      2.64s WALL (     120 calls)
     sum_band:bec :      0.00s CPU      0.00s WALL (     120 calls)
     addusdens    :     31.55s CPU     39.48s WALL (      10 calls)
                                        0.00s GPU  (      10 calls)
     addusd:skk   :      0.04s CPU      0.05s WALL (      20 calls)
                                        0.00s GPU  (      20 calls)

     Called by *egterg:
     cdiaghg      :      0.15s CPU      0.16s WALL (     433 calls)
     cegterg:over :      2.67s CPU      2.70s WALL (     325 calls)
     cegterg:upda :      1.84s CPU      1.87s WALL (     325 calls)
     cegterg:last :      4.40s CPU      4.46s WALL (     243 calls)
     h_psi        :     41.73s CPU     42.17s WALL (     457 calls)
     s_psi        :      5.25s CPU      5.31s WALL (     457 calls)
     g_psi        :      0.11s CPU      0.11s WALL (     325 calls)

     Called by h_psi:
     h_psi:calbec :      5.95s CPU      6.00s WALL (     457 calls)
     vloc_psi     :     30.33s CPU     30.65s WALL (     457 calls)
     add_vuspsi   :      5.26s CPU      5.31s WALL (     457 calls)

     General routines
     calbec       :      9.66s CPU      9.75s WALL (     637 calls)
     fft          :      2.71s CPU      2.85s WALL (     154 calls)
     ffts         :      0.32s CPU      0.32s WALL (      20 calls)
     fftw         :     19.47s CPU     19.66s WALL (   13384 calls)
     interpolate  :      0.41s CPU      0.43s WALL (      10 calls)


     PWSCF        :   2m37.85s CPU   3m 7.05s WALL


   This run was terminated on:  22: 4:58   8Apr2026            

=------------------------------------------------------------------------------=
   JOB DONE.
=------------------------------------------------------------------------------=
