
     Program PWSCF v.7.2 starts on 12Apr2026 at 21:39:49 

     This program is part of the open-source Quantum ESPRESSO suite
     for quantum simulation of materials; please cite
         "P. Giannozzi et al., J. Phys.:Condens. Matter 21 395502 (2009);
         "P. Giannozzi et al., J. Phys.:Condens. Matter 29 465901 (2017);
         "P. Giannozzi et al., J. Chem. Phys. 152 154105 (2020);
          URL http://www.quantum-espresso.org", 
     in publications or presentations arising from this work. More details at
     http://www.quantum-espresso.org/quote

     Serial version

     Program PWSCF v.7.2 starts on 12Apr2026 at 21:39:49 

     This program is part of the open-source Quantum ESPRESSO suite
     for quantum simulation of materials; please cite
         "P. Giannozzi et al., J. Phys.:Condens. Matter 21 395502 (2009);
         "P. Giannozzi et al., J. Phys.:Condens. Matter 29 465901 (2017);
         "P. Giannozzi et al., J. Chem. Phys. 152 154105 (2020);
          URL http://www.quantum-espresso.org", 
     in publications or presentations arising from this work. More details at
     http://www.quantum-espresso.org/quote

     Serial version

     Program PWSCF v.7.2 starts on 12Apr2026 at 21:39:49 

     This program is part of the open-source Quantum ESPRESSO suite
     for quantum simulation of materials; please cite
         "P. Giannozzi et al., J. Phys.:Condens. Matter 21 395502 (2009);
         "P. Giannozzi et al., J. Phys.:Condens. Matter 29 465901 (2017);
         "P. Giannozzi et al., J. Chem. Phys. 152 154105 (2020);
          URL http://www.quantum-espresso.org", 
     in publications or presentations arising from this work. More details at
     http://www.quantum-espresso.org/quote

     Serial version

     Program PWSCF v.7.2 starts on 12Apr2026 at 21:39:49 

     This program is part of the open-source Quantum ESPRESSO suite
     for quantum simulation of materials; please cite
         "P. Giannozzi et al., J. Phys.:Condens. Matter 21 395502 (2009);
         "P. Giannozzi et al., J. Phys.:Condens. Matter 29 465901 (2017);
         "P. Giannozzi et al., J. Chem. Phys. 152 154105 (2020);
          URL http://www.quantum-espresso.org", 
     in publications or presentations arising from this work. More details at
     http://www.quantum-espresso.org/quote

     Serial version
     3818 MiB available memory on the printing compute node when the environment starts

     3818 MiB available memory on the printing compute node when the environment starts

     3818 MiB available memory on the printing compute node when the environment starts

     3818 MiB available memory on the printing compute node when the environment starts

     Waiting for input...
     Waiting for input...
     Waiting for input...
     Waiting for input...
     Reading input from standard input
     Reading input from standard input
     Reading input from standard input
     Reading input from standard input

     Current dimensions of program PWSCF are:
     Max number of different atomic species (ntypx) = 10
     Max number of k-points (npk) =  40000
     Max angular momentum in pseudopotentials (lmaxx) =  4

     Current dimensions of program PWSCF are:
     Max number of different atomic species (ntypx) = 10
     Max number of k-points (npk) =  40000
     Max angular momentum in pseudopotentials (lmaxx) =  4

     Current dimensions of program PWSCF are:
     Max number of different atomic species (ntypx) = 10
     Max number of k-points (npk) =  40000
     Max angular momentum in pseudopotentials (lmaxx) =  4

     Current dimensions of program PWSCF are:
     Max number of different atomic species (ntypx) = 10
     Max number of k-points (npk) =  40000
     Max angular momentum in pseudopotentials (lmaxx) =  4
     Message from routine setup:
     using ibrav=0 with symmetry is DISCOURAGED, use correct ibrav instead
     Message from routine setup:
     using ibrav=0 with symmetry is DISCOURAGED, use correct ibrav instead
     Message from routine setup:
     using ibrav=0 with symmetry is DISCOURAGED, use correct ibrav instead
     Message from routine setup:
     using ibrav=0 with symmetry is DISCOURAGED, use correct ibrav instead





     G-vector sticks info
     --------------------
     sticks:   dense  smooth     PW     G-vecs:    dense   smooth      PW
     Sum        1507     595    169               254925    64451   10253

     Using Slab Decomposition


     G-vector sticks info
     --------------------
     sticks:   dense  smooth     PW     G-vecs:    dense   smooth      PW
     Sum        1507     595    169               254925    64451   10253

     Using Slab Decomposition


     G-vector sticks info

     G-vector sticks info
     --------------------
     sticks:   dense  smooth     PW     G-vecs:    dense   smooth      PW
     Sum        1507     595    169               254925    64451   10253

     Using Slab Decomposition



     bravais-lattice index     =            0


     bravais-lattice index     =            0
     --------------------
     sticks:   dense  smooth     PW     G-vecs:    dense   smooth      PW
     Sum        1507     595    169               254925    64451   10253

     Using Slab Decomposition



     bravais-lattice index     =            0


     bravais-lattice index     =            0
     lattice parameter (alat)  =       6.0155  a.u.
     unit-cell volume          =    1026.5532 (a.u.)^3
     number of atoms/cell      =            3
     number of atomic types    =            2
     number of electrons       =        26.00
     number of Kohn-Sham states=           20
     kinetic-energy cutoff     =      60.0000  Ry
     charge density cutoff     =     600.0000  Ry
     scf convergence threshold =      1.0E-08
     mixing beta               =       0.7000
     number of iterations used =            8  plain     mixing
     Exchange-correlation=  SLA  PW   PBX  PBC
                           (   1   4   3   4   0   0   0)

     celldm(1)=   6.015463  celldm(2)=   0.000000  celldm(3)=   0.000000
     celldm(4)=   0.000000  celldm(5)=   0.000000  celldm(6)=   0.000000

     crystal axes: (cart. coord. in units of alat)
               a(1) = (   1.000000   0.000000   0.000000 )  
               a(2) = (  -0.500000   0.866025   0.000000 )  
               a(3) = (   0.000000   0.000000   5.445573 )  

     reciprocal axes: (cart. coord. in units 2 pi/alat)
     lattice parameter (alat)  =       6.0155  a.u.
     unit-cell volume          =    1026.5532 (a.u.)^3
     number of atoms/cell      =            3
     number of atomic types    =            2
     number of electrons       =        26.00
     number of Kohn-Sham states=           20
     kinetic-energy cutoff     =      60.0000  Ry
     charge density cutoff     =     600.0000  Ry
     scf convergence threshold =      1.0E-08
     mixing beta               =       0.7000
     number of iterations used =            8  plain     mixing
     Exchange-correlation=  SLA  PW   PBX  PBC
                           (   1   4   3   4   0   0   0)

     celldm(1)=   6.015463  celldm(2)=   0.000000  celldm(3)=   0.000000
     celldm(4)=   0.000000  celldm(5)=   0.000000  celldm(6)=   0.000000

     crystal axes: (cart. coord. in units of alat)
               a(1) = (   1.000000   0.000000   0.000000 )  
               a(2) = (  -0.500000   0.866025   0.000000 )  
               a(3) = (   0.000000   0.000000   5.445573 )  

     reciprocal axes: (cart. coord. in units 2 pi/alat)
     lattice parameter (alat)  =       6.0155  a.u.
     unit-cell volume          =    1026.5532 (a.u.)^3
     number of atoms/cell      =            3
     number of atomic types    =            2
     number of electrons       =        26.00
     number of Kohn-Sham states=           20
     kinetic-energy cutoff     =      60.0000  Ry
     charge density cutoff     =     600.0000  Ry
     scf convergence threshold =      1.0E-08
     mixing beta               =       0.7000
     number of iterations used =            8  plain     mixing
     Exchange-correlation=  SLA  PW   PBX  PBC
                           (   1   4   3   4   0   0   0)

     celldm(1)=   6.015463  celldm(2)=   0.000000  celldm(3)=   0.000000
     celldm(4)=   0.000000  celldm(5)=   0.000000  celldm(6)=   0.000000

     crystal axes: (cart. coord. in units of alat)
               a(1) = (   1.000000   0.000000   0.000000 )  
               a(2) = (  -0.500000   0.866025   0.000000 )  
               a(3) = (   0.000000   0.000000   5.445573 )  

     reciprocal axes: (cart. coord. in units 2 pi/alat)
     lattice parameter (alat)  =       6.0155  a.u.
     unit-cell volume          =    1026.5532 (a.u.)^3
     number of atoms/cell      =            3
     number of atomic types    =            2
     number of electrons       =        26.00
     number of Kohn-Sham states=           20
     kinetic-energy cutoff     =      60.0000  Ry
     charge density cutoff     =     600.0000  Ry
     scf convergence threshold =      1.0E-08
     mixing beta               =       0.7000
     number of iterations used =            8  plain     mixing
     Exchange-correlation=  SLA  PW   PBX  PBC
                           (   1   4   3   4   0   0   0)

     celldm(1)=   6.015463  celldm(2)=   0.000000  celldm(3)=   0.000000
     celldm(4)=   0.000000  celldm(5)=   0.000000  celldm(6)=   0.000000

     crystal axes: (cart. coord. in units of alat)
               a(1) = (   1.000000   0.000000   0.000000 )  
               a(2) = (  -0.500000   0.866025   0.000000 )  
               a(3) = (   0.000000   0.000000   5.445573 )  

     reciprocal axes: (cart. coord. in units 2 pi/alat)
               b(1) = (  1.000000  0.577350 -0.000000 )  
               b(1) = (  1.000000  0.577350 -0.000000 )  
               b(2) = (  0.000000  1.154701  0.000000 )  
               b(3) = (  0.000000 -0.000000  0.183635 )  

               b(1) = (  1.000000  0.577350 -0.000000 )  
               b(2) = (  0.000000  1.154701  0.000000 )  
               b(3) = (  0.000000 -0.000000  0.183635 )  

               b(1) = (  1.000000  0.577350 -0.000000 )  
               b(2) = (  0.000000  1.154701  0.000000 )  
               b(3) = (  0.000000 -0.000000  0.183635 )  

               b(2) = (  0.000000  1.154701  0.000000 )  
               b(3) = (  0.000000 -0.000000  0.183635 )  


     PseudoPot. # 1 for Mo read from file:
     ./mo_pbe_v1.uspp.F.UPF
     MD5 check sum: 30c4dcd161f5d35cd49bb5239c51a633
     Pseudo is Ultrasoft + core correction, Zval = 14.0
     Generated by new atomic code, or converted to UPF format
     Using radial grid of  889 points,  6 beta functions with: 

     PseudoPot. # 1 for Mo read from file:
     ./mo_pbe_v1.uspp.F.UPF
     MD5 check sum: 30c4dcd161f5d35cd49bb5239c51a633
     Pseudo is Ultrasoft + core correction, Zval = 14.0
     Generated by new atomic code, or converted to UPF format
     Using radial grid of  889 points,  6 beta functions with: 
                l(1) =   0

     PseudoPot. # 1 for Mo read from file:
     ./mo_pbe_v1.uspp.F.UPF
     MD5 check sum: 30c4dcd161f5d35cd49bb5239c51a633
     Pseudo is Ultrasoft + core correction, Zval = 14.0
     Generated by new atomic code, or converted to UPF format
     Using radial grid of  889 points,  6 beta functions with: 
                l(1) =   0
                l(2) =   0
                l(3) =   1
                l(4) =   1
                l(5) =   2
                l(6) =   2

     PseudoPot. # 1 for Mo read from file:
     ./mo_pbe_v1.uspp.F.UPF
     MD5 check sum: 30c4dcd161f5d35cd49bb5239c51a633
     Pseudo is Ultrasoft + core correction, Zval = 14.0
     Generated by new atomic code, or converted to UPF format
     Using radial grid of  889 points,  6 beta functions with: 
                l(1) =   0
                l(2) =   0
                l(3) =   1
                l(4) =   1
                l(5) =   2
                l(6) =   2
                l(1) =   0
                l(2) =   0
                l(3) =   1
                l(4) =   1
                l(5) =   2
                l(6) =   2
     Q(r) pseudized with  6 coefficients,  rinner =    1.000   1.000   1.000
                                                       1.000   1.000

     PseudoPot. # 2 for S  read from file:
     ./s_pbe_v1.4.uspp.F.UPF
     MD5 check sum: 88d86576ff6df21479756cfb9bdac1df
     Pseudo is Ultrasoft + core correction, Zval =  6.0
     Generated by new atomic code, or converted to UPF format
     Using radial grid of  907 points,  6 beta functions with: 
                l(1) =   0
                l(2) =   0
                l(3) =   1
                l(4) =   1
                l(5) =   2
                l(6) =   2
     Q(r) pseudized with  8 coefficients,  rinner =    1.300   1.300   1.300
                                                       1.300   1.300

     atomic species   valence    mass     pseudopotential
                l(2) =   0
                l(3) =   1
                l(4) =   1
                l(5) =   2
                l(6) =   2
     Q(r) pseudized with  6 coefficients,  rinner =    1.000   1.000   1.000
                                                       1.000   1.000

     PseudoPot. # 2 for S  read from file:
     ./s_pbe_v1.4.uspp.F.UPF
     MD5 check sum: 88d86576ff6df21479756cfb9bdac1df
     Pseudo is Ultrasoft + core correction, Zval =  6.0
     Generated by new atomic code, or converted to UPF format
     Using radial grid of  907 points,  6 beta functions with: 
                l(1) =   0
                l(2) =   0
                l(3) =   1
                l(4) =   1
                l(5) =   2
                l(6) =   2
     Q(r) pseudized with  8 coefficients,  rinner =    1.300   1.300   1.300
                                                       1.300   1.300

     atomic species   valence    mass     pseudopotential
        Mo            14.00    95.94000     Mo( 1.00)
        S              6.00    32.06000     S ( 1.00)

     12 Sym. Ops. (no inversion) found



   Cartesian axes

     site n.     atom                  positions (alat units)
         1           Mo  tau(   1) = (   0.0000000   0.0000000   2.7227867  )
         2           S   tau(   2) = (  -0.0000000   0.5773503   3.2135870  )
         3           S   tau(   3) = (   0.0000000   0.5773503   2.2319864  )

     number of k points=    12
                       cart. coord. in units 2pi/alat
        k(    1) = (   0.0000000   0.0000000   0.0000000), wk =   0.0246914
        k(    2) = (   0.0000000   0.1283001   0.0000000), wk =   0.1481481
        k(    3) = (   0.0000000   0.2566001   0.0000000), wk =   0.1481481
     Q(r) pseudized with  6 coefficients,  rinner =    1.000   1.000   1.000
                                                       1.000   1.000

     PseudoPot. # 2 for S  read from file:
     ./s_pbe_v1.4.uspp.F.UPF
     MD5 check sum: 88d86576ff6df21479756cfb9bdac1df
     Pseudo is Ultrasoft + core correction, Zval =  6.0
     Generated by new atomic code, or converted to UPF format
     Using radial grid of  907 points,  6 beta functions with: 
                l(1) =   0
                l(2) =   0
                l(3) =   1
                l(4) =   1
                l(5) =   2
                l(6) =   2
     Q(r) pseudized with  8 coefficients,  rinner =    1.300   1.300   1.300
                                                       1.300   1.300

     atomic species   valence    mass     pseudopotential
        Mo            14.00    95.94000     Mo( 1.00)
        S              6.00    32.06000     S ( 1.00)

     12 Sym. Ops. (no inversion) found



   Cartesian axes

     site n.     atom                  positions (alat units)
         1           Mo  tau(   1) = (   0.0000000   0.0000000   2.7227867  )
         2           S   tau(   2) = (  -0.0000000   0.5773503   3.2135870  )
         3           S   tau(   3) = (   0.0000000   0.5773503   2.2319864  )

     number of k points=    12
                       cart. coord. in units 2pi/alat
        k(    1) = (   0.0000000   0.0000000   0.0000000), wk =   0.0246914
        k(    2) = (   0.0000000   0.1283001   0.0000000), wk =   0.1481481
        k(    3) = (   0.0000000   0.2566001   0.0000000), wk =   0.1481481
        k(    4) = (   0.0000000   0.3849002   0.0000000), wk =   0.1481481
        k(    5) = (   0.0000000   0.5132002   0.0000000), wk =   0.1481481
        k(    6) = (   0.1111111   0.1924501   0.0000000), wk =   0.1481481
        k(    7) = (   0.1111111   0.3207501   0.0000000), wk =   0.2962963
     Q(r) pseudized with  6 coefficients,  rinner =    1.000   1.000   1.000
                                                       1.000   1.000

     PseudoPot. # 2 for S  read from file:
     ./s_pbe_v1.4.uspp.F.UPF
     MD5 check sum: 88d86576ff6df21479756cfb9bdac1df
     Pseudo is Ultrasoft + core correction, Zval =  6.0
     Generated by new atomic code, or converted to UPF format
     Using radial grid of  907 points,  6 beta functions with: 
                l(1) =   0
                l(2) =   0
                l(3) =   1
                l(4) =   1
                l(5) =   2
                l(6) =   2
     Q(r) pseudized with  8 coefficients,  rinner =    1.300   1.300   1.300
                                                       1.300   1.300

     atomic species   valence    mass     pseudopotential
        Mo            14.00    95.94000     Mo( 1.00)
        S              6.00    32.06000     S ( 1.00)

     12 Sym. Ops. (no inversion) found



   Cartesian axes

     site n.     atom                  positions (alat units)
         1           Mo  tau(   1) = (   0.0000000   0.0000000   2.7227867  )
         2           S   tau(   2) = (  -0.0000000   0.5773503   3.2135870  )
         3           S   tau(   3) = (   0.0000000   0.5773503   2.2319864  )

     number of k points=    12
                       cart. coord. in units 2pi/alat
        k(    1) = (   0.0000000   0.0000000   0.0000000), wk =   0.0246914
        k(    2) = (   0.0000000   0.1283001   0.0000000), wk =   0.1481481
        k(    3) = (   0.0000000   0.2566001   0.0000000), wk =   0.1481481
        Mo            14.00    95.94000     Mo( 1.00)
        S              6.00    32.06000     S ( 1.00)

     12 Sym. Ops. (no inversion) found



   Cartesian axes

     site n.     atom                  positions (alat units)
         1           Mo  tau(   1) = (   0.0000000   0.0000000   2.7227867  )
         2           S   tau(   2) = (  -0.0000000   0.5773503   3.2135870  )
         3           S   tau(   3) = (   0.0000000   0.5773503   2.2319864  )

     number of k points=    12
                       cart. coord. in units 2pi/alat
        k(    1) = (   0.0000000   0.0000000   0.0000000), wk =   0.0246914
        k(    2) = (   0.0000000   0.1283001   0.0000000), wk =   0.1481481
        k(    3) = (   0.0000000   0.2566001   0.0000000), wk =   0.1481481
        k(    4) = (   0.0000000   0.3849002   0.0000000), wk =   0.1481481
        k(    5) = (   0.0000000   0.5132002   0.0000000), wk =   0.1481481
        k(    6) = (   0.1111111   0.1924501   0.0000000), wk =   0.1481481
        k(    7) = (   0.1111111   0.3207501   0.0000000), wk =   0.2962963
        k(    8) = (   0.1111111   0.4490502   0.0000000), wk =   0.2962963
        k(    9) = (   0.1111111   0.5773503   0.0000000), wk =   0.1481481
        k(   10) = (   0.2222222   0.3849002   0.0000000), wk =   0.1481481
        k(   11) = (   0.2222222   0.5132002   0.0000000), wk =   0.2962963
        k(   12) = (   0.3333333   0.5773503   0.0000000), wk =   0.0493827

     Dense  grid:   254925 G-vectors     FFT dimensions: (  48,  48, 256)

     Smooth grid:    64451 G-vectors     FFT dimensions: (  30,  30, 162)
        k(    4) = (   0.0000000   0.3849002   0.0000000), wk =   0.1481481
        k(    5) = (   0.0000000   0.5132002   0.0000000), wk =   0.1481481
        k(    6) = (   0.1111111   0.1924501   0.0000000), wk =   0.1481481
        k(    7) = (   0.1111111   0.3207501   0.0000000), wk =   0.2962963
        k(    8) = (   0.1111111   0.4490502   0.0000000), wk =   0.2962963
        k(    9) = (   0.1111111   0.5773503   0.0000000), wk =   0.1481481
        k(   10) = (   0.2222222   0.3849002   0.0000000), wk =   0.1481481
        k(   11) = (   0.2222222   0.5132002   0.0000000), wk =   0.2962963
        k(   12) = (   0.3333333   0.5773503   0.0000000), wk =   0.0493827

     Dense  grid:   254925 G-vectors     FFT dimensions: (  48,  48, 256)

     Smooth grid:    64451 G-vectors     FFT dimensions: (  30,  30, 162)
        k(    8) = (   0.1111111   0.4490502   0.0000000), wk =   0.2962963
        k(    9) = (   0.1111111   0.5773503   0.0000000), wk =   0.1481481
        k(   10) = (   0.2222222   0.3849002   0.0000000), wk =   0.1481481
        k(   11) = (   0.2222222   0.5132002   0.0000000), wk =   0.2962963
        k(   12) = (   0.3333333   0.5773503   0.0000000), wk =   0.0493827

     Dense  grid:   254925 G-vectors     FFT dimensions: (  48,  48, 256)

     Smooth grid:    64451 G-vectors     FFT dimensions: (  30,  30, 162)
        k(    4) = (   0.0000000   0.3849002   0.0000000), wk =   0.1481481
        k(    5) = (   0.0000000   0.5132002   0.0000000), wk =   0.1481481
        k(    6) = (   0.1111111   0.1924501   0.0000000), wk =   0.1481481
        k(    7) = (   0.1111111   0.3207501   0.0000000), wk =   0.2962963
        k(    8) = (   0.1111111   0.4490502   0.0000000), wk =   0.2962963
        k(    9) = (   0.1111111   0.5773503   0.0000000), wk =   0.1481481
        k(   10) = (   0.2222222   0.3849002   0.0000000), wk =   0.1481481
        k(   11) = (   0.2222222   0.5132002   0.0000000), wk =   0.2962963
        k(   12) = (   0.3333333   0.5773503   0.0000000), wk =   0.0493827

     Dense  grid:   254925 G-vectors     FFT dimensions: (  48,  48, 256)

     Smooth grid:    64451 G-vectors     FFT dimensions: (  30,  30, 162)


     Estimated max dynamical RAM per process >     926.65 MB


     Estimated max dynamical RAM per process >     926.65 MB
     Estimated max dynamical RAM per process >     926.65 MB
     Estimated max dynamical RAM per process >     926.65 MB

     Initial potential from superposition of free atoms

     Initial potential from superposition of free atoms

     Initial potential from superposition of free atoms

     Initial potential from superposition of free atoms

     starting charge      25.9989, renormalised to      26.0000

     starting charge      25.9989, renormalised to      26.0000

     starting charge      25.9989, renormalised to      26.0000

     starting charge      25.9989, renormalised to      26.0000

     negative rho (up, down):  4.559E-05 0.000E+00

     negative rho (up, down):  4.559E-05 0.000E+00

     negative rho (up, down):  4.559E-05 0.000E+00

     negative rho (up, down):  4.559E-05 0.000E+00
     Starting wfcs are   21 randomized atomic wfcs
     Starting wfcs are   21 randomized atomic wfcs
     Starting wfcs are   21 randomized atomic wfcs
     Starting wfcs are   21 randomized atomic wfcs

     total cpu time spent up to now is       21.4 secs

     Self-consistent Calculation

     iteration #  1     ecut=    60.00 Ry     beta= 0.70
     Davidson diagonalization with overlap

     total cpu time spent up to now is       21.4 secs

     total cpu time spent up to now is       21.4 secs

     total cpu time spent up to now is       21.4 secs

     Self-consistent Calculation

     iteration #  1     ecut=    60.00 Ry     beta= 0.70
     Davidson diagonalization with overlap

     Self-consistent Calculation

     iteration #  1     ecut=    60.00 Ry     beta= 0.70

     Self-consistent Calculation

     iteration #  1     ecut=    60.00 Ry     beta= 0.70
     Davidson diagonalization with overlap
     Davidson diagonalization with overlap
     ethr =  1.00E-02,  avg # of iterations =  4.9
     ethr =  1.00E-02,  avg # of iterations =  4.9
     ethr =  1.00E-02,  avg # of iterations =  4.9
     ethr =  1.00E-02,  avg # of iterations =  4.9

     Threshold (ethr) on eigenvalues was too large:
     Diagonalizing with lowered threshold

     Davidson diagonalization with overlap

     Threshold (ethr) on eigenvalues was too large:
     Diagonalizing with lowered threshold

     Davidson diagonalization with overlap

     Threshold (ethr) on eigenvalues was too large:
     Diagonalizing with lowered threshold

     Davidson diagonalization with overlap

     Threshold (ethr) on eigenvalues was too large:
     Diagonalizing with lowered threshold

     Davidson diagonalization with overlap
     ethr =  3.48E-04,  avg # of iterations =  4.4
     ethr =  3.48E-04,  avg # of iterations =  4.4
     ethr =  3.48E-04,  avg # of iterations =  4.4
     ethr =  3.48E-04,  avg # of iterations =  4.4

     negative rho (up, down):  1.504E-04 0.000E+00

     negative rho (up, down):  1.504E-04 0.000E+00

     negative rho (up, down):  1.504E-04 0.000E+00

     negative rho (up, down):  1.504E-04 0.000E+00

     total cpu time spent up to now is       50.9 secs

     total energy              =    -187.69180008 Ry
     estimated scf accuracy    <       0.11042766 Ry

     iteration #  2     ecut=    60.00 Ry     beta= 0.70
     Davidson diagonalization with overlap

     total cpu time spent up to now is       51.6 secs

     total energy              =    -187.69180008 Ry
     estimated scf accuracy    <       0.11042766 Ry

     iteration #  2     ecut=    60.00 Ry     beta= 0.70
     Davidson diagonalization with overlap

     total cpu time spent up to now is       51.8 secs

     total energy              =    -187.69180008 Ry
     estimated scf accuracy    <       0.11042766 Ry

     iteration #  2     ecut=    60.00 Ry     beta= 0.70
     Davidson diagonalization with overlap

     total cpu time spent up to now is       51.8 secs

     total energy              =    -187.69180008 Ry
     estimated scf accuracy    <       0.11042766 Ry

     iteration #  2     ecut=    60.00 Ry     beta= 0.70
     Davidson diagonalization with overlap
     ethr =  4.25E-04,  avg # of iterations =  6.8
     ethr =  4.25E-04,  avg # of iterations =  6.8
     ethr =  4.25E-04,  avg # of iterations =  6.8
     ethr =  4.25E-04,  avg # of iterations =  6.8

     negative rho (up, down):  1.790E-04 0.000E+00

     negative rho (up, down):  1.790E-04 0.000E+00

     negative rho (up, down):  1.790E-04 0.000E+00

     negative rho (up, down):  1.790E-04 0.000E+00

     total cpu time spent up to now is       67.5 secs

     total energy              =    -187.66478050 Ry
     estimated scf accuracy    <       0.27585159 Ry

     iteration #  3     ecut=    60.00 Ry     beta= 0.70
     Davidson diagonalization with overlap

     total cpu time spent up to now is       68.3 secs

     total energy              =    -187.66478050 Ry
     estimated scf accuracy    <       0.27585159 Ry

     iteration #  3     ecut=    60.00 Ry     beta= 0.70
     Davidson diagonalization with overlap

     total cpu time spent up to now is       68.7 secs

     total energy              =    -187.66478050 Ry
     estimated scf accuracy    <       0.27585159 Ry

     iteration #  3     ecut=    60.00 Ry     beta= 0.70
     Davidson diagonalization with overlap

     total cpu time spent up to now is       68.7 secs

     total energy              =    -187.66478050 Ry
     estimated scf accuracy    <       0.27585159 Ry

     iteration #  3     ecut=    60.00 Ry     beta= 0.70
     Davidson diagonalization with overlap
     ethr =  4.25E-04,  avg # of iterations =  3.8
     ethr =  4.25E-04,  avg # of iterations =  3.8
     ethr =  4.25E-04,  avg # of iterations =  3.8
     ethr =  4.25E-04,  avg # of iterations =  3.8

     negative rho (up, down):  1.944E-04 0.000E+00

     negative rho (up, down):  1.944E-04 0.000E+00

     negative rho (up, down):  1.944E-04 0.000E+00

     negative rho (up, down):  1.944E-04 0.000E+00

     total cpu time spent up to now is       82.8 secs

     total energy              =    -187.71651289 Ry
     estimated scf accuracy    <       0.12011835 Ry

     iteration #  4     ecut=    60.00 Ry     beta= 0.70
     Davidson diagonalization with overlap

     total cpu time spent up to now is       84.1 secs

     total energy              =    -187.71651289 Ry
     estimated scf accuracy    <       0.12011835 Ry

     iteration #  4     ecut=    60.00 Ry     beta= 0.70
     Davidson diagonalization with overlap

     total cpu time spent up to now is       84.2 secs

     total energy              =    -187.71651289 Ry
     estimated scf accuracy    <       0.12011835 Ry

     iteration #  4     ecut=    60.00 Ry     beta= 0.70
     Davidson diagonalization with overlap

     total cpu time spent up to now is       84.3 secs

     total energy              =    -187.71651289 Ry
     estimated scf accuracy    <       0.12011835 Ry

     iteration #  4     ecut=    60.00 Ry     beta= 0.70
     Davidson diagonalization with overlap
     ethr =  4.25E-04,  avg # of iterations =  1.1
     ethr =  4.25E-04,  avg # of iterations =  1.1
     ethr =  4.25E-04,  avg # of iterations =  1.1
     ethr =  4.25E-04,  avg # of iterations =  1.1

     negative rho (up, down):  2.030E-04 0.000E+00

     negative rho (up, down):  2.030E-04 0.000E+00

     negative rho (up, down):  2.030E-04 0.000E+00

     negative rho (up, down):  2.030E-04 0.000E+00

     total cpu time spent up to now is       96.0 secs

     total energy              =    -187.73237069 Ry
     estimated scf accuracy    <       0.00045754 Ry

     iteration #  5     ecut=    60.00 Ry     beta= 0.70
     Davidson diagonalization with overlap

     total cpu time spent up to now is       97.8 secs

     total energy              =    -187.73237069 Ry
     estimated scf accuracy    <       0.00045754 Ry

     iteration #  5     ecut=    60.00 Ry     beta= 0.70
     Davidson diagonalization with overlap

     total cpu time spent up to now is       97.9 secs

     total energy              =    -187.73237069 Ry
     estimated scf accuracy    <       0.00045754 Ry

     iteration #  5     ecut=    60.00 Ry     beta= 0.70
     Davidson diagonalization with overlap

     total cpu time spent up to now is       97.9 secs

     total energy              =    -187.73237069 Ry
     estimated scf accuracy    <       0.00045754 Ry

     iteration #  5     ecut=    60.00 Ry     beta= 0.70
     Davidson diagonalization with overlap
     ethr =  1.76E-06,  avg # of iterations =  9.5
     ethr =  1.76E-06,  avg # of iterations =  9.5
     ethr =  1.76E-06,  avg # of iterations =  9.5
     ethr =  1.76E-06,  avg # of iterations =  9.5

     negative rho (up, down):  2.038E-04 0.000E+00

     negative rho (up, down):  2.038E-04 0.000E+00

     negative rho (up, down):  2.038E-04 0.000E+00

     negative rho (up, down):  2.038E-04 0.000E+00

     total cpu time spent up to now is      115.1 secs

     total energy              =    -187.73276184 Ry
     estimated scf accuracy    <       0.00012950 Ry

     iteration #  6     ecut=    60.00 Ry     beta= 0.70
     Davidson diagonalization with overlap

     total cpu time spent up to now is      117.4 secs

     total energy              =    -187.73276184 Ry
     estimated scf accuracy    <       0.00012950 Ry

     iteration #  6     ecut=    60.00 Ry     beta= 0.70

     total cpu time spent up to now is      117.4 secs

     total energy              =    -187.73276184 Ry
     estimated scf accuracy    <       0.00012950 Ry

     iteration #  6     ecut=    60.00 Ry     beta= 0.70
     Davidson diagonalization with overlap
     Davidson diagonalization with overlap

     total cpu time spent up to now is      117.8 secs

     total energy              =    -187.73276184 Ry
     estimated scf accuracy    <       0.00012950 Ry

     iteration #  6     ecut=    60.00 Ry     beta= 0.70
     Davidson diagonalization with overlap
     ethr =  4.98E-07,  avg # of iterations =  1.3
     ethr =  4.98E-07,  avg # of iterations =  1.3
     ethr =  4.98E-07,  avg # of iterations =  1.3
     ethr =  4.98E-07,  avg # of iterations =  1.3

     negative rho (up, down):  2.041E-04 0.000E+00

     negative rho (up, down):  2.041E-04 0.000E+00

     negative rho (up, down):  2.041E-04 0.000E+00

     total cpu time spent up to now is      128.5 secs

     total energy              =    -187.73276501 Ry
     estimated scf accuracy    <       0.00001789 Ry

     iteration #  7     ecut=    60.00 Ry     beta= 0.70
     Davidson diagonalization with overlap

     negative rho (up, down):  2.041E-04 0.000E+00

     total cpu time spent up to now is      131.4 secs

     total energy              =    -187.73276501 Ry
     estimated scf accuracy    <       0.00001789 Ry

     iteration #  7     ecut=    60.00 Ry     beta= 0.70
     Davidson diagonalization with overlap

     total cpu time spent up to now is      131.4 secs

     total energy              =    -187.73276501 Ry
     estimated scf accuracy    <       0.00001789 Ry

     iteration #  7     ecut=    60.00 Ry     beta= 0.70
     Davidson diagonalization with overlap

     total cpu time spent up to now is      131.7 secs

     total energy              =    -187.73276501 Ry
     estimated scf accuracy    <       0.00001789 Ry

     iteration #  7     ecut=    60.00 Ry     beta= 0.70
     Davidson diagonalization with overlap
     ethr =  6.88E-08,  avg # of iterations =  2.3
     ethr =  6.88E-08,  avg # of iterations =  2.3
     ethr =  6.88E-08,  avg # of iterations =  2.3
     ethr =  6.88E-08,  avg # of iterations =  2.3

     negative rho (up, down):  2.044E-04 0.000E+00

     total cpu time spent up to now is      143.8 secs

     total energy              =    -187.73277037 Ry
     estimated scf accuracy    <       0.00000071 Ry

     iteration #  8     ecut=    60.00 Ry     beta= 0.70
     Davidson diagonalization with overlap

     negative rho (up, down):  2.044E-04 0.000E+00

     negative rho (up, down):  2.044E-04 0.000E+00

     negative rho (up, down):  2.044E-04 0.000E+00

     total cpu time spent up to now is      147.3 secs

     total energy              =    -187.73277037 Ry
     estimated scf accuracy    <       0.00000071 Ry

     iteration #  8     ecut=    60.00 Ry     beta= 0.70
     Davidson diagonalization with overlap

     total cpu time spent up to now is      147.3 secs

     total energy              =    -187.73277037 Ry
     estimated scf accuracy    <       0.00000071 Ry

     iteration #  8     ecut=    60.00 Ry     beta= 0.70
     Davidson diagonalization with overlap

     total cpu time spent up to now is      147.6 secs

     total energy              =    -187.73277037 Ry
     estimated scf accuracy    <       0.00000071 Ry

     iteration #  8     ecut=    60.00 Ry     beta= 0.70
     Davidson diagonalization with overlap
     ethr =  2.72E-09,  avg # of iterations =  4.1
     ethr =  2.72E-09,  avg # of iterations =  4.1
     ethr =  2.72E-09,  avg # of iterations =  4.1
     ethr =  2.72E-09,  avg # of iterations =  4.1

     negative rho (up, down):  2.046E-04 0.000E+00

     total cpu time spent up to now is      161.8 secs

     total energy              =    -187.73277081 Ry
     estimated scf accuracy    <       0.00000009 Ry

     iteration #  9     ecut=    60.00 Ry     beta= 0.70
     Davidson diagonalization with overlap

     negative rho (up, down):  2.046E-04 0.000E+00

     negative rho (up, down):  2.046E-04 0.000E+00

     negative rho (up, down):  2.046E-04 0.000E+00

     total cpu time spent up to now is      165.8 secs

     total energy              =    -187.73277081 Ry
     estimated scf accuracy    <       0.00000009 Ry

     iteration #  9     ecut=    60.00 Ry     beta= 0.70

     total cpu time spent up to now is      165.8 secs

     total energy              =    -187.73277081 Ry
     estimated scf accuracy    <       0.00000009 Ry

     iteration #  9     ecut=    60.00 Ry     beta= 0.70
     Davidson diagonalization with overlap
     Davidson diagonalization with overlap

     total cpu time spent up to now is      166.0 secs

     total energy              =    -187.73277081 Ry
     estimated scf accuracy    <       0.00000009 Ry

     iteration #  9     ecut=    60.00 Ry     beta= 0.70
     Davidson diagonalization with overlap
     ethr =  3.31E-10,  avg # of iterations =  2.3
     ethr =  3.31E-10,  avg # of iterations =  2.3
     ethr =  3.31E-10,  avg # of iterations =  2.3

     negative rho (up, down):  2.046E-04 0.000E+00
     ethr =  3.31E-10,  avg # of iterations =  2.3

     total cpu time spent up to now is      176.7 secs

     End of self-consistent calculation

          k = 0.0000 0.0000 0.0000 (  8091 PWs)   bands (ev):

   -61.1068 -35.2386 -35.0339 -35.0339 -14.2925 -12.9878  -5.8103  -2.8186
    -2.8186  -1.9802  -1.7151  -1.7151  -0.2110   2.5466   2.5466   2.7958
     2.7958   5.0642   5.4358   5.9090

          k = 0.0000 0.1283 0.0000 (  8083 PWs)   bands (ev):

   -61.1025 -35.2299 -35.0782 -35.0440 -14.1128 -12.9139  -5.6088  -3.2034
    -2.6831  -2.6316  -1.9900  -1.3039  -0.3142   2.3604   2.3621   2.6004
     2.8482   5.3498   5.6742   6.4389

          k = 0.0000 0.2566 0.0000 (  8071 PWs)   bands (ev):

   -61.0915 -35.2079 -35.1890 -35.0695 -13.6247 -12.7141  -5.2199  -3.9043
    -3.5544  -2.5504  -2.1432  -1.4299  -0.7786   1.9636   2.2239   2.5429
     3.4289   6.0381   6.3486   7.1400

          k = 0.0000 0.3849 0.0000 (  8061 PWs)   bands (ev):

   -61.0790 -35.3126 -35.1828 -35.0982 -12.9895 -12.4593  -5.4338  -4.3749
    -4.1022  -3.0520  -1.8275  -1.5792  -1.1743   1.9992   2.1257   3.1743
     3.8715   6.9453   7.2481   7.6145

          k = 0.0000 0.5132 0.0000 (  8034 PWs)   bands (ev):

   -61.0708 -35.3920 -35.1663 -35.1169 -12.5031 -12.2722  -5.8922  -4.9058
    -4.2306  -3.3317  -2.0497  -1.2332  -0.9216   2.0110   2.4664   3.5993
     4.0697   6.1657   7.6045   7.8517

          k = 0.1111 0.1925 0.0000 (  8093 PWs)   bands (ev):

   -61.0948 -35.2146 -35.1518 -35.0657 -13.7782 -12.7763  -5.2911  -3.7265
    -3.2110  -2.6544  -2.3306  -1.1365  -0.6076   1.9707   2.2538   2.3188
     3.3768   5.8319   6.1346   6.9775

          k = 0.1111 0.3208 0.0000 (  8082 PWs)   bands (ev):

   -61.0831 -35.2598 -35.1910 -35.1019 -13.2108 -12.5438  -5.1723  -4.0418
    -3.9910  -3.2532  -2.0741  -1.3769  -1.0219   1.7751   2.2371   2.5996
     3.9229   6.6907   6.9780   7.7898

          k = 0.1111 0.4491 0.0000 (  8039 PWs)   bands (ev):

   -61.0727 -35.3528 -35.1702 -35.1341 -12.6318 -12.3109  -5.5731  -4.8007
    -4.0706  -3.3826  -2.0435  -1.8374  -0.8691   1.9937   2.3737   3.2144
     4.0838   6.9217   7.8676   7.8951

          k = 0.1111 0.5774 0.0000 (  8030 PWs)   bands (ev):

   -61.0686 -35.3892 -35.1619 -35.1468 -12.3726 -12.2094  -5.7862  -5.1207
    -4.2074  -3.3746  -2.0594  -1.9593  -0.6202   2.0243   2.6420   3.6107
     3.9299   6.1249   8.4559   8.5232

          k = 0.2222 0.3849 0.0000 (  8055 PWs)   bands (ev):

   -61.0734 -35.3196 -35.1717 -35.1591 -12.6852 -12.3223  -5.3035  -4.7486
    -3.8486  -3.5108  -2.7247  -1.6065  -0.9014   1.9398   2.3836   2.7876
     4.2695   7.4845   7.9251   8.0026

          k = 0.2222 0.5132 0.0000 (  8029 PWs)   bands (ev):

   -61.0671 -35.3483 -35.2064 -35.1591 -12.2999 -12.1561  -5.3481  -5.3155
    -4.0059  -3.3078  -3.1442  -2.0738  -0.5227   1.8190   2.9035   3.0054
     4.3988   6.7635   8.2423   8.8672

          k = 0.3333 0.5774 0.0000 (  7992 PWs)   bands (ev):

   -61.0650 -35.3121 -35.2695 -35.1547 -12.1651 -12.0870  -5.5995  -4.7846
    -4.2665  -3.7585  -3.0745  -2.3571  -0.2290   1.4507   2.8527   3.3230
     4.6433   6.9985   7.3718   9.3596

     highest occupied, lowest unoccupied level (ev):    -0.2110    1.4507

!    total energy              =    -187.73277084 Ry
     estimated scf accuracy    <          2.5E-09 Ry

     The total energy is the sum of the following terms:
     one-electron contribution =    -899.24573139 Ry
     hartree contribution      =     450.73852817 Ry
     xc contribution           =     -36.27106151 Ry
     ewald contribution        =     297.04549390 Ry

     convergence has been achieved in   9 iterations

     Writing all to output data dir ./tmp/mos2.save/

     init_run     :     16.73s CPU     21.22s WALL (       1 calls)
     electrons    :    137.15s CPU    155.32s WALL (       1 calls)

     Called by init_run:
     wfcinit      :      2.59s CPU      2.60s WALL (       1 calls)
     potinit      :      2.56s CPU      2.76s WALL (       1 calls)
     hinit0       :      2.63s CPU      2.67s WALL (       1 calls)

     Called by electrons:
     c_bands      :     74.62s CPU     75.86s WALL (      10 calls)
     sum_band     :     40.01s CPU     48.09s WALL (      10 calls)
     v_of_rho     :      5.42s CPU      6.08s WALL (      10 calls)
     newd         :     26.39s CPU     38.86s WALL (      10 calls)
     mix_rho      :      0.51s CPU      0.54s WALL (      10 calls)

     Called by c_bands:
     init_us_2    :      0.97s CPU      1.00s WALL (     252 calls)
     init_us_2:cp :      0.97s CPU      0.99s WALL (     252 calls)
     cegterg      :     72.69s CPU     73.89s WALL (     120 calls)

     Called by *egterg:
     cdiaghg      :      0.30s CPU      0.33s WALL (     595 calls)
     h_psi        :     50.06s CPU     50.85s WALL (     619 calls)
     s_psi        :      6.97s CPU      7.08s WALL (     619 calls)
     g_psi        :      0.14s CPU      0.14s WALL (     487 calls)

     Called by h_psi:
     h_psi:calbec :      8.05s CPU      8.16s WALL (     619 calls)
     vloc_psi     :     34.60s CPU     35.17s WALL (     619 calls)
     add_vuspsi   :      7.15s CPU      7.26s WALL (     619 calls)

     General routines
     calbec       :     10.83s CPU     10.97s WALL (     739 calls)
     fft          :      2.73s CPU      2.78s WALL (     129 calls)
     ffts         :      0.32s CPU      0.32s WALL (      20 calls)
     fftw         :     21.95s CPU     22.31s WALL (   16054 calls)
     interpolate  :      0.48s CPU      0.49s WALL (      10 calls)


     PWSCF        :   2m34.11s CPU   2m56.95s WALL


   This run was terminated on:  21:42:46  12Apr2026            

=------------------------------------------------------------------------------=
   JOB DONE.
=------------------------------------------------------------------------------=

     negative rho (up, down):  2.046E-04 0.000E+00

     negative rho (up, down):  2.046E-04 0.000E+00

     negative rho (up, down):  2.046E-04 0.000E+00

     total cpu time spent up to now is      180.5 secs

     End of self-consistent calculation

          k = 0.0000 0.0000 0.0000 (  8091 PWs)   bands (ev):

   -61.1068 -35.2386 -35.0339 -35.0339 -14.2925 -12.9878  -5.8103  -2.8186
    -2.8186  -1.9802  -1.7151  -1.7151  -0.2110   2.5466   2.5466   2.7958
     2.7958   5.0642   5.4358   5.9090

          k = 0.0000 0.1283 0.0000 (  8083 PWs)   bands (ev):

   -61.1025 -35.2299 -35.0782 -35.0440 -14.1128 -12.9139  -5.6088  -3.2034
    -2.6831  -2.6316  -1.9900  -1.3039  -0.3142   2.3604   2.3621   2.6004
     2.8482   5.3498   5.6742   6.4389

          k = 0.0000 0.2566 0.0000 (  8071 PWs)   bands (ev):

   -61.0915 -35.2079 -35.1890 -35.0695 -13.6247 -12.7141  -5.2199  -3.9043
    -3.5544  -2.5504  -2.1432  -1.4299  -0.7786   1.9636   2.2239   2.5429
     3.4289   6.0381   6.3486   7.1400

          k = 0.0000 0.3849 0.0000 (  8061 PWs)   bands (ev):

   -61.0790 -35.3126 -35.1828 -35.0982 -12.9895 -12.4593  -5.4338  -4.3749
    -4.1022  -3.0520  -1.8275  -1.5792  -1.1743   1.9992   2.1257   3.1743
     3.8715   6.9453   7.2481   7.6145

          k = 0.0000 0.5132 0.0000 (  8034 PWs)   bands (ev):

   -61.0708 -35.3920 -35.1663 -35.1169 -12.5031 -12.2722  -5.8922  -4.9058
    -4.2306  -3.3317  -2.0497  -1.2332  -0.9216   2.0110   2.4664   3.5993
     4.0697   6.1657   7.6045   7.8517

          k = 0.1111 0.1925 0.0000 (  8093 PWs)   bands (ev):

   -61.0948 -35.2146 -35.1518 -35.0657 -13.7782 -12.7763  -5.2911  -3.7265
    -3.2110  -2.6544  -2.3306  -1.1365  -0.6076   1.9707   2.2538   2.3188
     3.3768   5.8319   6.1346   6.9775

          k = 0.1111 0.3208 0.0000 (  8082 PWs)   bands (ev):

   -61.0831 -35.2598 -35.1910 -35.1019 -13.2108 -12.5438  -5.1723  -4.0418
    -3.9910  -3.2532  -2.0741  -1.3769  -1.0219   1.7751   2.2371   2.5996
     3.9229   6.6907   6.9780   7.7898

          k = 0.1111 0.4491 0.0000 (  8039 PWs)   bands (ev):

   -61.0727 -35.3528 -35.1702 -35.1341 -12.6318 -12.3109  -5.5731  -4.8007
    -4.0706  -3.3826  -2.0435  -1.8374  -0.8691   1.9937   2.3737   3.2144
     4.0838   6.9217   7.8676   7.8951

          k = 0.1111 0.5774 0.0000 (  8030 PWs)   bands (ev):

   -61.0686 -35.3892 -35.1619 -35.1468 -12.3726 -12.2094  -5.7862  -5.1207
    -4.2074  -3.3746  -2.0594  -1.9593  -0.6202   2.0243   2.6420   3.6107
     3.9299   6.1249   8.4559   8.5232

          k = 0.2222 0.3849 0.0000 (  8055 PWs)   bands (ev):

   -61.0734 -35.3196 -35.1717 -35.1591 -12.6852 -12.3223  -5.3035  -4.7486
    -3.8486  -3.5108  -2.7247  -1.6065  -0.9014   1.9398   2.3836   2.7876
     4.2695   7.4845   7.9251   8.0026

          k = 0.2222 0.5132 0.0000 (  8029 PWs)   bands (ev):

   -61.0671 -35.3483 -35.2064 -35.1591 -12.2999 -12.1561  -5.3481  -5.3155
    -4.0059  -3.3078  -3.1442  -2.0738  -0.5227   1.8190   2.9035   3.0054
     4.3988   6.7635   8.2423   8.8672

          k = 0.3333 0.5774 0.0000 (  7992 PWs)   bands (ev):

   -61.0650 -35.3121 -35.2695 -35.1547 -12.1651 -12.0870  -5.5995  -4.7846
    -4.2665  -3.7585  -3.0745  -2.3571  -0.2290   1.4507   2.8527   3.3230
     4.6433   6.9985   7.3718   9.3596

     highest occupied, lowest unoccupied level (ev):    -0.2110    1.4507

!    total energy              =    -187.73277084 Ry
     estimated scf accuracy    <          2.5E-09 Ry

     The total energy is the sum of the following terms:
     one-electron contribution =    -899.24573139 Ry
     hartree contribution      =     450.73852817 Ry
     xc contribution           =     -36.27106151 Ry
     ewald contribution        =     297.04549390 Ry

     convergence has been achieved in   9 iterations

     total cpu time spent up to now is      180.5 secs

     End of self-consistent calculation

          k = 0.0000 0.0000 0.0000 (  8091 PWs)   bands (ev):

   -61.1068 -35.2386 -35.0339 -35.0339 -14.2925 -12.9878  -5.8103  -2.8186
    -2.8186  -1.9802  -1.7151  -1.7151  -0.2110   2.5466   2.5466   2.7958
     2.7958   5.0642   5.4358   5.9090

          k = 0.0000 0.1283 0.0000 (  8083 PWs)   bands (ev):

   -61.1025 -35.2299 -35.0782 -35.0440 -14.1128 -12.9139  -5.6088  -3.2034
    -2.6831  -2.6316  -1.9900  -1.3039  -0.3142   2.3604   2.3621   2.6004
     2.8482   5.3498   5.6742   6.4389

          k = 0.0000 0.2566 0.0000 (  8071 PWs)   bands (ev):

   -61.0915 -35.2079 -35.1890 -35.0695 -13.6247 -12.7141  -5.2199  -3.9043
    -3.5544  -2.5504  -2.1432  -1.4299  -0.7786   1.9636   2.2239   2.5429
     3.4289   6.0381   6.3486   7.1400

          k = 0.0000 0.3849 0.0000 (  8061 PWs)   bands (ev):

   -61.0790 -35.3126 -35.1828 -35.0982 -12.9895 -12.4593  -5.4338  -4.3749
    -4.1022  -3.0520  -1.8275  -1.5792  -1.1743   1.9992   2.1257   3.1743
     3.8715   6.9453   7.2481   7.6145

          k = 0.0000 0.5132 0.0000 (  8034 PWs)   bands (ev):

   -61.0708 -35.3920 -35.1663 -35.1169 -12.5031 -12.2722  -5.8922  -4.9058
    -4.2306  -3.3317  -2.0497  -1.2332  -0.9216   2.0110   2.4664   3.5993
     4.0697   6.1657   7.6045   7.8517

          k = 0.1111 0.1925 0.0000 (  8093 PWs)   bands (ev):

   -61.0948 -35.2146 -35.1518 -35.0657 -13.7782 -12.7763  -5.2911  -3.7265
    -3.2110  -2.6544  -2.3306  -1.1365  -0.6076   1.9707   2.2538   2.3188
     3.3768   5.8319   6.1346   6.9775

          k = 0.1111 0.3208 0.0000 (  8082 PWs)   bands (ev):

   -61.0831 -35.2598 -35.1910 -35.1019 -13.2108 -12.5438  -5.1723  -4.0418
    -3.9910  -3.2532  -2.0741  -1.3769  -1.0219   1.7751   2.2371   2.5996
     3.9229   6.6907   6.9780   7.7898

          k = 0.1111 0.4491 0.0000 (  8039 PWs)   bands (ev):

   -61.0727 -35.3528 -35.1702 -35.1341 -12.6318 -12.3109  -5.5731  -4.8007
    -4.0706  -3.3826  -2.0435  -1.8374  -0.8691   1.9937   2.3737   3.2144
     4.0838   6.9217   7.8676   7.8951

          k = 0.1111 0.5774 0.0000 (  8030 PWs)   bands (ev):

   -61.0686 -35.3892 -35.1619 -35.1468 -12.3726 -12.2094  -5.7862  -5.1207
    -4.2074  -3.3746  -2.0594  -1.9593  -0.6202   2.0243   2.6420   3.6107
     3.9299   6.1249   8.4559   8.5232

          k = 0.2222 0.3849 0.0000 (  8055 PWs)   bands (ev):

   -61.0734 -35.3196 -35.1717 -35.1591 -12.6852 -12.3223  -5.3035  -4.7486
    -3.8486  -3.5108  -2.7247  -1.6065  -0.9014   1.9398   2.3836   2.7876
     4.2695   7.4845   7.9251   8.0026

          k = 0.2222 0.5132 0.0000 (  8029 PWs)   bands (ev):

   -61.0671 -35.3483 -35.2064 -35.1591 -12.2999 -12.1561  -5.3481  -5.3155
    -4.0059  -3.3078  -3.1442  -2.0738  -0.5227   1.8190   2.9035   3.0054
     4.3988   6.7635   8.2423   8.8672

          k = 0.3333 0.5774 0.0000 (  7992 PWs)   bands (ev):

   -61.0650 -35.3121 -35.2695 -35.1547 -12.1651 -12.0870  -5.5995  -4.7846
    -4.2665  -3.7585  -3.0745  -2.3571  -0.2290   1.4507   2.8527   3.3230
     4.6433   6.9985   7.3718   9.3596

     highest occupied, lowest unoccupied level (ev):    -0.2110    1.4507

!    total energy              =    -187.73277084 Ry
     estimated scf accuracy    <          2.5E-09 Ry

     The total energy is the sum of the following terms:
     one-electron contribution =    -899.24573139 Ry
     hartree contribution      =     450.73852817 Ry
     xc contribution           =     -36.27106151 Ry
     ewald contribution        =     297.04549390 Ry

     convergence has been achieved in   9 iterations

     Writing all to output data dir ./tmp/mos2.save/

     Writing all to output data dir ./tmp/mos2.save/

     total cpu time spent up to now is      180.7 secs

     End of self-consistent calculation

          k = 0.0000 0.0000 0.0000 (  8091 PWs)   bands (ev):

   -61.1068 -35.2386 -35.0339 -35.0339 -14.2925 -12.9878  -5.8103  -2.8186
    -2.8186  -1.9802  -1.7151  -1.7151  -0.2110   2.5466   2.5466   2.7958
     2.7958   5.0642   5.4358   5.9090

          k = 0.0000 0.1283 0.0000 (  8083 PWs)   bands (ev):

   -61.1025 -35.2299 -35.0782 -35.0440 -14.1128 -12.9139  -5.6088  -3.2034
    -2.6831  -2.6316  -1.9900  -1.3039  -0.3142   2.3604   2.3621   2.6004
     2.8482   5.3498   5.6742   6.4389

          k = 0.0000 0.2566 0.0000 (  8071 PWs)   bands (ev):

   -61.0915 -35.2079 -35.1890 -35.0695 -13.6247 -12.7141  -5.2199  -3.9043
    -3.5544  -2.5504  -2.1432  -1.4299  -0.7786   1.9636   2.2239   2.5429
     3.4289   6.0381   6.3486   7.1400

          k = 0.0000 0.3849 0.0000 (  8061 PWs)   bands (ev):

   -61.0790 -35.3126 -35.1828 -35.0982 -12.9895 -12.4593  -5.4338  -4.3749
    -4.1022  -3.0520  -1.8275  -1.5792  -1.1743   1.9992   2.1257   3.1743
     3.8715   6.9453   7.2481   7.6145

          k = 0.0000 0.5132 0.0000 (  8034 PWs)   bands (ev):

   -61.0708 -35.3920 -35.1663 -35.1169 -12.5031 -12.2722  -5.8922  -4.9058
    -4.2306  -3.3317  -2.0497  -1.2332  -0.9216   2.0110   2.4664   3.5993
     4.0697   6.1657   7.6045   7.8517

          k = 0.1111 0.1925 0.0000 (  8093 PWs)   bands (ev):

   -61.0948 -35.2146 -35.1518 -35.0657 -13.7782 -12.7763  -5.2911  -3.7265
    -3.2110  -2.6544  -2.3306  -1.1365  -0.6076   1.9707   2.2538   2.3188
     3.3768   5.8319   6.1346   6.9775

          k = 0.1111 0.3208 0.0000 (  8082 PWs)   bands (ev):

   -61.0831 -35.2598 -35.1910 -35.1019 -13.2108 -12.5438  -5.1723  -4.0418
    -3.9910  -3.2532  -2.0741  -1.3769  -1.0219   1.7751   2.2371   2.5996
     3.9229   6.6907   6.9780   7.7898

          k = 0.1111 0.4491 0.0000 (  8039 PWs)   bands (ev):

   -61.0727 -35.3528 -35.1702 -35.1341 -12.6318 -12.3109  -5.5731  -4.8007
    -4.0706  -3.3826  -2.0435  -1.8374  -0.8691   1.9937   2.3737   3.2144
     4.0838   6.9217   7.8676   7.8951

          k = 0.1111 0.5774 0.0000 (  8030 PWs)   bands (ev):

   -61.0686 -35.3892 -35.1619 -35.1468 -12.3726 -12.2094  -5.7862  -5.1207
    -4.2074  -3.3746  -2.0594  -1.9593  -0.6202   2.0243   2.6420   3.6107
     3.9299   6.1249   8.4559   8.5232

          k = 0.2222 0.3849 0.0000 (  8055 PWs)   bands (ev):

   -61.0734 -35.3196 -35.1717 -35.1591 -12.6852 -12.3223  -5.3035  -4.7486
    -3.8486  -3.5108  -2.7247  -1.6065  -0.9014   1.9398   2.3836   2.7876
     4.2695   7.4845   7.9251   8.0026

          k = 0.2222 0.5132 0.0000 (  8029 PWs)   bands (ev):

   -61.0671 -35.3483 -35.2064 -35.1591 -12.2999 -12.1561  -5.3481  -5.3155
    -4.0059  -3.3078  -3.1442  -2.0738  -0.5227   1.8190   2.9035   3.0054
     4.3988   6.7635   8.2423   8.8672

          k = 0.3333 0.5774 0.0000 (  7992 PWs)   bands (ev):

   -61.0650 -35.3121 -35.2695 -35.1547 -12.1651 -12.0870  -5.5995  -4.7846
    -4.2665  -3.7585  -3.0745  -2.3571  -0.2290   1.4507   2.8527   3.3230
     4.6433   6.9985   7.3718   9.3596

     highest occupied, lowest unoccupied level (ev):    -0.2110    1.4507

!    total energy              =    -187.73277084 Ry
     estimated scf accuracy    <          2.5E-09 Ry

     The total energy is the sum of the following terms:
     one-electron contribution =    -899.24573139 Ry
     hartree contribution      =     450.73852817 Ry
     xc contribution           =     -36.27106151 Ry
     ewald contribution        =     297.04549390 Ry

     convergence has been achieved in   9 iterations

     init_run     :     16.92s CPU     21.24s WALL (       1 calls)
     electrons    :    141.78s CPU    159.12s WALL (       1 calls)

     Called by init_run:
     wfcinit      :      2.63s CPU      2.64s WALL (       1 calls)
     potinit      :      2.55s CPU      2.76s WALL (       1 calls)
     hinit0       :      2.62s CPU      2.67s WALL (       1 calls)

     Called by electrons:
     c_bands      :     75.51s CPU     76.57s WALL (      10 calls)
     sum_band     :     46.11s CPU     53.70s WALL (      10 calls)
     v_of_rho     :      5.12s CPU      5.77s WALL (      10 calls)
     newd         :     24.58s CPU     36.77s WALL (      10 calls)
     mix_rho      :      0.47s CPU      0.48s WALL (      10 calls)

     Called by c_bands:
     init_us_2    :      1.03s CPU      1.05s WALL (     252 calls)
     init_us_2:cp :      1.03s CPU      1.05s WALL (     252 calls)
     cegterg      :     73.52s CPU     74.56s WALL (     120 calls)

     Called by *egterg:
     cdiaghg      :      0.31s CPU      0.31s WALL (     595 calls)
     h_psi        :     50.74s CPU     51.43s WALL (     619 calls)
     s_psi        :      6.83s CPU      6.92s WALL (     619 calls)
     g_psi        :      0.14s CPU      0.15s WALL (     487 calls)

     Called by h_psi:
     h_psi:calbec :      7.39s CPU      7.49s WALL (     619 calls)
     vloc_psi     :     36.39s CPU     36.88s WALL (     619 calls)
     add_vuspsi   :      6.69s CPU      6.78s WALL (     619 calls)

     General routines
     calbec       :     10.85s CPU     11.00s WALL (     739 calls)
     fft          :      2.56s CPU      2.62s WALL (     129 calls)
     ffts         :      0.31s CPU      0.31s WALL (      20 calls)
     fftw         :     23.31s CPU     23.63s WALL (   16054 calls)
     interpolate  :      0.46s CPU      0.46s WALL (      10 calls)


     init_run     :     16.77s CPU     21.24s WALL (       1 calls)
     electrons    :    141.64s CPU    159.13s WALL (       1 calls)

     Called by init_run:
     wfcinit      :      2.64s CPU      2.65s WALL (       1 calls)
     potinit      :      2.55s CPU      2.76s WALL (       1 calls)
     hinit0       :      2.59s CPU      2.63s WALL (       1 calls)

     Called by electrons:
     c_bands      :     75.23s CPU     76.40s WALL (      10 calls)
     sum_band     :     46.03s CPU     53.80s WALL (      10 calls)
     v_of_rho     :      5.11s CPU      5.76s WALL (      10 calls)
     newd         :     24.63s CPU     36.79s WALL (      10 calls)
     mix_rho      :      0.52s CPU      0.53s WALL (      10 calls)

     Called by c_bands:
     init_us_2    :      1.01s CPU      1.03s WALL (     252 calls)
     init_us_2:cp :      1.01s CPU      1.03s WALL (     252 calls)
     cegterg      :     73.28s CPU     74.42s WALL (     120 calls)

     Called by *egterg:
     cdiaghg      :      0.30s CPU      0.31s WALL (     595 calls)
     h_psi        :     51.26s CPU     52.03s WALL (     619 calls)
     s_psi        :      6.62s CPU      6.72s WALL (     619 calls)
     g_psi        :      0.14s CPU      0.15s WALL (     487 calls)

     Called by h_psi:
     h_psi:calbec :      7.58s CPU      7.68s WALL (     619 calls)
     vloc_psi     :     36.68s CPU     37.25s WALL (     619 calls)
     add_vuspsi   :      6.76s CPU      6.85s WALL (     619 calls)

     General routines
     calbec       :     11.15s CPU     11.31s WALL (     739 calls)
     fft          :      2.84s CPU      2.89s WALL (     129 calls)
     ffts         :      0.32s CPU      0.32s WALL (      20 calls)
     fftw         :     23.47s CPU     23.83s WALL (   16054 calls)
     interpolate  :      0.50s CPU      0.51s WALL (      10 calls)


     PWSCF        :   2m38.87s CPU   3m 0.68s WALL


   This run was terminated on:  21:42:49  12Apr2026            

=------------------------------------------------------------------------------=
   JOB DONE.
=------------------------------------------------------------------------------=

     PWSCF        :   2m38.58s CPU   3m 0.69s WALL


   This run was terminated on:  21:42:49  12Apr2026            

=------------------------------------------------------------------------------=
   JOB DONE.
=------------------------------------------------------------------------------=

     Writing all to output data dir ./tmp/mos2.save/

     init_run     :     17.05s CPU     21.24s WALL (       1 calls)
     electrons    :    136.27s CPU    159.26s WALL (       1 calls)

     Called by init_run:
     wfcinit      :      2.62s CPU      2.65s WALL (       1 calls)
     potinit      :      2.57s CPU      2.76s WALL (       1 calls)
     hinit0       :      2.62s CPU      2.67s WALL (       1 calls)

     Called by electrons:
     c_bands      :     74.24s CPU     78.01s WALL (      10 calls)
     sum_band     :     42.47s CPU     52.16s WALL (      10 calls)
     v_of_rho     :      4.86s CPU      5.68s WALL (      10 calls)
     newd         :     24.50s CPU     37.11s WALL (      10 calls)
     mix_rho      :      0.38s CPU      0.42s WALL (      10 calls)

     Called by c_bands:
     init_us_2    :      1.00s CPU      1.05s WALL (     252 calls)
     init_us_2:cp :      1.00s CPU      1.05s WALL (     252 calls)
     cegterg      :     72.30s CPU     75.97s WALL (     120 calls)

     Called by *egterg:
     cdiaghg      :      0.30s CPU      0.33s WALL (     595 calls)
     h_psi        :     49.87s CPU     52.29s WALL (     619 calls)
     s_psi        :      6.88s CPU      7.22s WALL (     619 calls)
     g_psi        :      0.13s CPU      0.14s WALL (     487 calls)

     Called by h_psi:
     h_psi:calbec :      7.76s CPU      8.11s WALL (     619 calls)
     vloc_psi     :     34.89s CPU     36.60s WALL (     619 calls)
     add_vuspsi   :      6.99s CPU      7.33s WALL (     619 calls)

     General routines
     calbec       :     10.89s CPU     11.42s WALL (     739 calls)
     fft          :      2.40s CPU      2.53s WALL (     129 calls)
     ffts         :      0.31s CPU      0.32s WALL (      20 calls)
     fftw         :     22.53s CPU     23.68s WALL (   16054 calls)
     interpolate  :      0.47s CPU      0.50s WALL (      10 calls)


     PWSCF        :   2m33.51s CPU   3m 0.80s WALL


   This run was terminated on:  21:42:49  12Apr2026            

=------------------------------------------------------------------------------=
   JOB DONE.
=------------------------------------------------------------------------------=
