
     Program PWSCF v.7.2 starts on  8Apr2026 at 21: 1:12 

     This program is part of the open-source Quantum ESPRESSO suite
     for quantum simulation of materials; please cite
         "P. Giannozzi et al., J. Phys.:Condens. Matter 21 395502 (2009);
         "P. Giannozzi et al., J. Phys.:Condens. Matter 29 465901 (2017);
         "P. Giannozzi et al., J. Chem. Phys. 152 154105 (2020);
          URL http://www.quantum-espresso.org", 
     in publications or presentations arising from this work. More details at
     http://www.quantum-espresso.org/quote

     Serial version
     97 MiB available memory on the printing compute node when the environment starts

     Waiting for input...
     Reading input from standard input

     Current dimensions of program PWSCF are:
     Max number of different atomic species (ntypx) = 10
     Max number of k-points (npk) =  40000
     Max angular momentum in pseudopotentials (lmaxx) =  4
     Message from routine setup:
     using ibrav=0 with symmetry is DISCOURAGED, use correct ibrav instead


     G-vector sticks info
     --------------------
     sticks:   dense  smooth     PW     G-vecs:    dense   smooth      PW
     Sum        1507     595    187               255069    64475   10271

     Using Slab Decomposition


     Title: 
     MoS2 Monolayer vc-relax                                                    


     bravais-lattice index     =            0
     lattice parameter (alat)  =       6.0171  a.u.
     unit-cell volume          =    1027.1209 (a.u.)^3
     number of atoms/cell      =            3
     number of atomic types    =            2
     number of electrons       =        26.00
     number of Kohn-Sham states=           17
     kinetic-energy cutoff     =      60.0000  Ry
     charge density cutoff     =     600.0000  Ry
     scf convergence threshold =      1.0E-08
     mixing beta               =       0.7000
     number of iterations used =            8  plain     mixing
     energy convergence thresh.=      1.0E-05
     force convergence thresh. =      1.0E-04
     press convergence thresh. =      1.0E-01
     Exchange-correlation=  SLA  PW   PBX  PBC
                           (   1   4   3   4   0   0   0)
     nstep                     =          100


     celldm(1)=   6.017126  celldm(2)=   0.000000  celldm(3)=   0.000000
     celldm(4)=   0.000000  celldm(5)=   0.000000  celldm(6)=   0.000000

     crystal axes: (cart. coord. in units of alat)
               a(1) = (   1.000000   0.000000   0.000000 )  
               a(2) = (  -0.500000   0.866025   0.000000 )  
               a(3) = (   0.000000   0.000000   5.444068 )  

     reciprocal axes: (cart. coord. in units 2 pi/alat)
               b(1) = (  1.000000  0.577350 -0.000000 )  
               b(2) = (  0.000000  1.154701  0.000000 )  
               b(3) = (  0.000000 -0.000000  0.183686 )  


     PseudoPot. # 1 for Mo read from file:
     ./mo_pbe_v1.uspp.F.UPF
     MD5 check sum: 30c4dcd161f5d35cd49bb5239c51a633
     Pseudo is Ultrasoft + core correction, Zval = 14.0
     Generated by new atomic code, or converted to UPF format
     Using radial grid of  889 points,  6 beta functions with: 
                l(1) =   0
                l(2) =   0
                l(3) =   1
                l(4) =   1
                l(5) =   2
                l(6) =   2
     Q(r) pseudized with  6 coefficients,  rinner =    1.000   1.000   1.000
                                                       1.000   1.000

     PseudoPot. # 2 for S  read from file:
     ./s_pbe_v1.4.uspp.F.UPF
     MD5 check sum: 88d86576ff6df21479756cfb9bdac1df
     Pseudo is Ultrasoft + core correction, Zval =  6.0
     Generated by new atomic code, or converted to UPF format
     Using radial grid of  907 points,  6 beta functions with: 
                l(1) =   0
                l(2) =   0
                l(3) =   1
                l(4) =   1
                l(5) =   2
                l(6) =   2
     Q(r) pseudized with  8 coefficients,  rinner =    1.300   1.300   1.300
                                                       1.300   1.300

     atomic species   valence    mass     pseudopotential
        Mo            14.00    95.94000     Mo( 1.00)
        S              6.00    32.06600     S ( 1.00)

     12 Sym. Ops. (no inversion) found


                                    s                        frac. trans.

      isym =  1     identity                                     

 cryst.   s( 1) = (     1          0          0      )
                  (     0          1          0      )
                  (     0          0          1      )

 cart.    s( 1) = (  1.0000000  0.0000000  0.0000000 )
                  (  0.0000000  1.0000000  0.0000000 )
                  (  0.0000000  0.0000000  1.0000000 )


      isym =  2     180 deg rotation - cart. axis [0,1,0]        

 cryst.   s( 2) = (    -1          0          0      )
                  (     1          1          0      )
                  (     0          0         -1      )

 cart.    s( 2) = ( -1.0000000  0.0000000  0.0000000 )
                  (  0.0000000  1.0000000  0.0000000 )
                  (  0.0000000  0.0000000 -1.0000000 )


      isym =  3     120 deg rotation - cryst. axis [0,0,1]       

 cryst.   s( 3) = (     0          1          0      )
                  (    -1         -1          0      )
                  (     0          0          1      )

 cart.    s( 3) = ( -0.5000000 -0.8660254  0.0000000 )
                  (  0.8660254 -0.5000000  0.0000000 )
                  (  0.0000000  0.0000000  1.0000000 )


      isym =  4     120 deg rotation - cryst. axis [0,0,-1]      

 cryst.   s( 4) = (    -1         -1          0      )
                  (     1          0          0      )
                  (     0          0          1      )

 cart.    s( 4) = ( -0.5000000  0.8660254  0.0000000 )
                  ( -0.8660254 -0.5000000  0.0000000 )
                  (  0.0000000  0.0000000  1.0000000 )


      isym =  5     180 deg rotation - cryst. axis [1,-1,0]      

 cryst.   s( 5) = (     0         -1          0      )
                  (    -1          0          0      )
                  (     0          0         -1      )

 cart.    s( 5) = (  0.5000000 -0.8660254  0.0000000 )
                  ( -0.8660254 -0.5000000  0.0000000 )
                  (  0.0000000  0.0000000 -1.0000000 )


      isym =  6     180 deg rotation - cryst. axis [2,1,0]       

 cryst.   s( 6) = (     1          1          0      )
                  (     0         -1          0      )
                  (     0          0         -1      )

 cart.    s( 6) = (  0.5000000  0.8660254  0.0000000 )
                  (  0.8660254 -0.5000000  0.0000000 )
                  (  0.0000000  0.0000000 -1.0000000 )


      isym =  7     inv. 180 deg rotation - cart. axis [0,0,1]   

 cryst.   s( 7) = (     1          0          0      )
                  (     0          1          0      )
                  (     0          0         -1      )

 cart.    s( 7) = (  1.0000000  0.0000000  0.0000000 )
                  (  0.0000000  1.0000000  0.0000000 )
                  (  0.0000000  0.0000000 -1.0000000 )


      isym =  8     inv. 180 deg rotation - cart. axis [1,0,0]   

 cryst.   s( 8) = (    -1          0          0      )
                  (     1          1          0      )
                  (     0          0          1      )

 cart.    s( 8) = ( -1.0000000  0.0000000  0.0000000 )
                  (  0.0000000  1.0000000  0.0000000 )
                  (  0.0000000  0.0000000  1.0000000 )


      isym =  9     inv.  60 deg rotation - cryst. axis [0,0,1]  

 cryst.   s( 9) = (    -1         -1          0      )
                  (     1          0          0      )
                  (     0          0         -1      )

 cart.    s( 9) = ( -0.5000000  0.8660254  0.0000000 )
                  ( -0.8660254 -0.5000000  0.0000000 )
                  (  0.0000000  0.0000000 -1.0000000 )


      isym = 10     inv.  60 deg rotation - cryst. axis [0,0,-1] 

 cryst.   s(10) = (     0          1          0      )
                  (    -1         -1          0      )
                  (     0          0         -1      )

 cart.    s(10) = ( -0.5000000 -0.8660254  0.0000000 )
                  (  0.8660254 -0.5000000  0.0000000 )
                  (  0.0000000  0.0000000 -1.0000000 )


      isym = 11     inv. 180 deg rotation - cryst. axis [0,1,0]  

 cryst.   s(11) = (     1          1          0      )
                  (     0         -1          0      )
                  (     0          0          1      )

 cart.    s(11) = (  0.5000000  0.8660254  0.0000000 )
                  (  0.8660254 -0.5000000  0.0000000 )
                  (  0.0000000  0.0000000  1.0000000 )


      isym = 12     inv. 180 deg rotation - cryst. axis [1,1,0]  

 cryst.   s(12) = (     0         -1          0      )
                  (    -1          0          0      )
                  (     0          0          1      )

 cart.    s(12) = (  0.5000000 -0.8660254  0.0000000 )
                  ( -0.8660254 -0.5000000  0.0000000 )
                  (  0.0000000  0.0000000  1.0000000 )


   Cartesian axes

     site n.     atom                  positions (alat units)
         1           Mo  tau(   1) = (   0.0000000   0.0000000   2.7220342  )
         2           S   tau(   2) = (  -0.0000000   0.5773503   3.2092401  )
         3           S   tau(   3) = (   0.0000000   0.5773503   2.2348283  )

   Crystallographic axes

     site n.     atom                  positions (cryst. coord.)
         1           Mo  tau(   1) = (  0.0000000  0.0000000  0.5000000  )
         2           S   tau(   2) = (  0.3333333  0.6666667  0.5894930  )
         3           S   tau(   3) = (  0.3333333  0.6666667  0.4105070  )

     number of k points=    12  Gaussian smearing, width (Ry)=  0.0100
                       cart. coord. in units 2pi/alat
        k(    1) = (   0.0000000   0.0000000   0.0000000), wk =   0.0246914
        k(    2) = (   0.0000000   0.1283001   0.0000000), wk =   0.1481481
        k(    3) = (   0.0000000   0.2566001   0.0000000), wk =   0.1481481
        k(    4) = (   0.0000000   0.3849002   0.0000000), wk =   0.1481481
        k(    5) = (   0.0000000   0.5132002   0.0000000), wk =   0.1481481
        k(    6) = (   0.1111111   0.1924501   0.0000000), wk =   0.1481481
        k(    7) = (   0.1111111   0.3207501   0.0000000), wk =   0.2962963
        k(    8) = (   0.1111111   0.4490502   0.0000000), wk =   0.2962963
        k(    9) = (   0.1111111   0.5773503   0.0000000), wk =   0.1481481
        k(   10) = (   0.2222222   0.3849002   0.0000000), wk =   0.1481481
        k(   11) = (   0.2222222   0.5132002   0.0000000), wk =   0.2962963
        k(   12) = (   0.3333333   0.5773503   0.0000000), wk =   0.0493827

                       cryst. coord.
        k(    1) = (   0.0000000   0.0000000   0.0000000), wk =   0.0246914
        k(    2) = (   0.0000000   0.1111111   0.0000000), wk =   0.1481481
        k(    3) = (   0.0000000   0.2222222   0.0000000), wk =   0.1481481
        k(    4) = (   0.0000000   0.3333333   0.0000000), wk =   0.1481481
        k(    5) = (   0.0000000   0.4444444   0.0000000), wk =   0.1481481
        k(    6) = (   0.1111111   0.1111111   0.0000000), wk =   0.1481481
        k(    7) = (   0.1111111   0.2222222   0.0000000), wk =   0.2962963
        k(    8) = (   0.1111111   0.3333333   0.0000000), wk =   0.2962963
        k(    9) = (   0.1111111   0.4444444   0.0000000), wk =   0.1481481
        k(   10) = (   0.2222222   0.2222222   0.0000000), wk =   0.1481481
        k(   11) = (   0.2222222   0.3333333   0.0000000), wk =   0.2962963
        k(   12) = (   0.3333333   0.3333333   0.0000000), wk =   0.0493827

     Dense  grid:   255069 G-vectors     FFT dimensions: (  48,  48, 256)

     Smooth grid:    64475 G-vectors     FFT dimensions: (  30,  30, 162)

     Dynamical RAM for                 wfc:       2.09 MB

     Dynamical RAM for     wfc (w. buffer):      27.18 MB

     Dynamical RAM for           str. fact:       7.78 MB

     Dynamical RAM for           local pot:       0.00 MB

     Dynamical RAM for          nlocal pot:       6.64 MB

     Dynamical RAM for                qrad:       7.86 MB

     Dynamical RAM for          rho,v,vnew:      25.18 MB

     Dynamical RAM for               rhoin:       8.39 MB

     Dynamical RAM for            rho*nmix:      62.27 MB

     Dynamical RAM for           G-vectors:      15.09 MB

     Dynamical RAM for          h,s,v(r/c):       0.05 MB

     Dynamical RAM for          <psi|beta>:       0.01 MB

     Dynamical RAM for                 psi:       4.18 MB

     Dynamical RAM for                hpsi:       4.18 MB

     Dynamical RAM for                spsi:       4.18 MB

     Dynamical RAM for      wfcinit/wfcrot:       5.18 MB

     Dynamical RAM for           addusdens:     731.70 MB

     Dynamical RAM for          addusforce:     741.44 MB

     Dynamical RAM for         addusstress:     782.30 MB

     Estimated static dynamical RAM per process >     132.30 MB

     Estimated max dynamical RAM per process >     976.87 MB

     Initial potential from superposition of free atoms

     starting charge      25.9989, renormalised to      26.0000

     negative rho (up, down):  4.515E-05 0.000E+00
     Starting wfcs are   21 randomized atomic wfcs

     total cpu time spent up to now is       23.6 secs

     Self-consistent Calculation

     iteration #  1     ecut=    60.00 Ry     beta= 0.70
     Davidson diagonalization with overlap

---- Real-time Memory Report at c_bands before calling an iterative solver
           827 MiB given to the printing process from OS
             0 MiB allocation reported by mallinfo(arena+hblkhd)
           757 MiB available memory on the node where the printing process lives
------------------
     ethr =  1.00E-02,  avg # of iterations =  2.1

     Threshold (ethr) on eigenvalues was too large:
     Diagonalizing with lowered threshold

     Davidson diagonalization with overlap

---- Real-time Memory Report at c_bands before calling an iterative solver
           875 MiB given to the printing process from OS
             0 MiB allocation reported by mallinfo(arena+hblkhd)
           783 MiB available memory on the node where the printing process lives
------------------
     ethr =  3.02E-04,  avg # of iterations =  3.2

     negative rho (up, down):  1.532E-04 0.000E+00

     total cpu time spent up to now is       33.7 secs

     total energy              =    -187.69547889 Ry
     estimated scf accuracy    <       0.10614716 Ry

     iteration #  2     ecut=    60.00 Ry     beta= 0.70
     Davidson diagonalization with overlap

---- Real-time Memory Report at c_bands before calling an iterative solver
           893 MiB given to the printing process from OS
             0 MiB allocation reported by mallinfo(arena+hblkhd)
           773 MiB available memory on the node where the printing process lives
------------------
     ethr =  4.08E-04,  avg # of iterations =  2.9

     negative rho (up, down):  1.885E-04 0.000E+00

     total cpu time spent up to now is       39.4 secs

     total energy              =    -187.67628780 Ry
     estimated scf accuracy    <       0.21258249 Ry

     iteration #  3     ecut=    60.00 Ry     beta= 0.70
     Davidson diagonalization with overlap

---- Real-time Memory Report at c_bands before calling an iterative solver
           895 MiB given to the printing process from OS
             0 MiB allocation reported by mallinfo(arena+hblkhd)
           771 MiB available memory on the node where the printing process lives
------------------
     ethr =  4.08E-04,  avg # of iterations =  2.4

     negative rho (up, down):  2.038E-04 0.000E+00

     total cpu time spent up to now is       45.1 secs

     total energy              =    -187.71699466 Ry
     estimated scf accuracy    <       0.11373002 Ry

     iteration #  4     ecut=    60.00 Ry     beta= 0.70
     Davidson diagonalization with overlap

---- Real-time Memory Report at c_bands before calling an iterative solver
           897 MiB given to the printing process from OS
             0 MiB allocation reported by mallinfo(arena+hblkhd)
           767 MiB available memory on the node where the printing process lives
------------------
     ethr =  4.08E-04,  avg # of iterations =  1.3

     negative rho (up, down):  2.046E-04 0.000E+00

     total cpu time spent up to now is       50.2 secs

     total energy              =    -187.73216800 Ry
     estimated scf accuracy    <       0.00041981 Ry

     iteration #  5     ecut=    60.00 Ry     beta= 0.70
     Davidson diagonalization with overlap

---- Real-time Memory Report at c_bands before calling an iterative solver
           899 MiB given to the printing process from OS
             0 MiB allocation reported by mallinfo(arena+hblkhd)
           786 MiB available memory on the node where the printing process lives
------------------
     ethr =  1.61E-06,  avg # of iterations =  5.0

     negative rho (up, down):  2.048E-04 0.000E+00

     total cpu time spent up to now is       57.3 secs

     total energy              =    -187.73259857 Ry
     estimated scf accuracy    <       0.00024314 Ry

     iteration #  6     ecut=    60.00 Ry     beta= 0.70
     Davidson diagonalization with overlap

---- Real-time Memory Report at c_bands before calling an iterative solver
           901 MiB given to the printing process from OS
             0 MiB allocation reported by mallinfo(arena+hblkhd)
           795 MiB available memory on the node where the printing process lives
------------------
     ethr =  9.35E-07,  avg # of iterations =  1.0

     negative rho (up, down):  2.050E-04 0.000E+00

     total cpu time spent up to now is       62.5 secs

     total energy              =    -187.73260370 Ry
     estimated scf accuracy    <       0.00002971 Ry

     iteration #  7     ecut=    60.00 Ry     beta= 0.70
     Davidson diagonalization with overlap

---- Real-time Memory Report at c_bands before calling an iterative solver
           903 MiB given to the printing process from OS
             0 MiB allocation reported by mallinfo(arena+hblkhd)
           787 MiB available memory on the node where the printing process lives
------------------
     ethr =  1.14E-07,  avg # of iterations =  2.8

     negative rho (up, down):  2.050E-04 0.000E+00

     total cpu time spent up to now is       68.3 secs

     total energy              =    -187.73261239 Ry
     estimated scf accuracy    <       0.00000160 Ry

     iteration #  8     ecut=    60.00 Ry     beta= 0.70
     Davidson diagonalization with overlap

---- Real-time Memory Report at c_bands before calling an iterative solver
           905 MiB given to the printing process from OS
             0 MiB allocation reported by mallinfo(arena+hblkhd)
           767 MiB available memory on the node where the printing process lives
------------------
     ethr =  6.15E-09,  avg # of iterations =  3.9

     negative rho (up, down):  2.050E-04 0.000E+00

     total cpu time spent up to now is       74.6 secs

     total energy              =    -187.73261310 Ry
     estimated scf accuracy    <       0.00000009 Ry

     iteration #  9     ecut=    60.00 Ry     beta= 0.70
     Davidson diagonalization with overlap

---- Real-time Memory Report at c_bands before calling an iterative solver
           907 MiB given to the printing process from OS
             0 MiB allocation reported by mallinfo(arena+hblkhd)
           789 MiB available memory on the node where the printing process lives
------------------
     ethr =  3.37E-10,  avg # of iterations =  3.1

     negative rho (up, down):  2.050E-04 0.000E+00

     total cpu time spent up to now is       80.6 secs

     End of self-consistent calculation

          k = 0.0000 0.0000 0.0000 (  8091 PWs)   bands (ev):

   -61.1130 -35.2473 -35.0461 -35.0461 -14.3356 -12.9925  -5.8485  -2.8929
    -2.8929  -1.9587  -1.7738  -1.7738  -0.1801   2.5398   2.5398   2.8169
     2.8169

     occupation numbers 
     1.0000   1.0000   1.0000   1.0000   1.0000   1.0000   1.0000   1.0000
     1.0000   1.0000   1.0000   1.0000   1.0000   0.0000   0.0000   0.0000
     0.0000

          k = 0.0000 0.1283 0.0000 (  8095 PWs)   bands (ev):

   -61.1087 -35.2385 -35.0906 -35.0562 -14.1555 -12.9206  -5.6488  -3.2728
    -2.7061  -2.7048  -2.0485  -1.3121  -0.2902   2.3563   2.3863   2.6184
     2.8466

     occupation numbers 
     1.0000   1.0000   1.0000   1.0000   1.0000   1.0000   1.0000   1.0000
     1.0000   1.0000   1.0000   1.0000   1.0000   0.0000   0.0000   0.0000
     0.0000

          k = 0.0000 0.2566 0.0000 (  8071 PWs)   bands (ev):

   -61.0977 -35.2163 -35.2020 -35.0818 -13.6668 -12.7266  -5.2696  -3.9544
    -3.5831  -2.6087  -2.2121  -1.4196  -0.7729   1.9915   2.2334   2.5459
     3.4408

     occupation numbers 
     1.0000   1.0000   1.0000   1.0000   1.0000   1.0000   1.0000   1.0000
     1.0000   1.0000   1.0000   1.0000   1.0000   0.0000   0.0000   0.0000
     0.0000

          k = 0.0000 0.3849 0.0000 (  8069 PWs)   bands (ev):

   -61.0851 -35.3262 -35.1910 -35.1106 -13.0324 -12.4798  -5.4869  -4.3985
    -4.1323  -3.1104  -1.8105  -1.6381  -1.1837   1.9942   2.1436   3.1876
     3.8980

     occupation numbers 
     1.0000   1.0000   1.0000   1.0000   1.0000   1.0000   1.0000   1.0000
     1.0000   1.0000   1.0000   1.0000   1.0000   0.0000   0.0000   0.0000
     0.0000

          k = 0.0000 0.5132 0.0000 (  8038 PWs)   bands (ev):

   -61.0769 -35.4060 -35.1744 -35.1294 -12.5481 -12.2990  -5.9297  -4.9222
    -4.2648  -3.3901  -2.0315  -1.2805  -0.9319   1.9908   2.4624   3.6172
     4.1044

     occupation numbers 
     1.0000   1.0000   1.0000   1.0000   1.0000   1.0000   1.0000   1.0000
     1.0000   1.0000   1.0000   1.0000   1.0000   0.0000   0.0000   0.0000
     0.0000

          k = 0.1111 0.1925 0.0000 (  8097 PWs)   bands (ev):

   -61.1010 -35.2231 -35.1646 -35.0780 -13.8204 -12.7870  -5.3367  -3.7849
    -3.2386  -2.7064  -2.3997  -1.1360  -0.5972   1.9980   2.2516   2.3318
     3.3871

     occupation numbers 
     1.0000   1.0000   1.0000   1.0000   1.0000   1.0000   1.0000   1.0000
     1.0000   1.0000   1.0000   1.0000   1.0000   0.0000   0.0000   0.0000
     0.0000

          k = 0.1111 0.3208 0.0000 (  8086 PWs)   bands (ev):

   -61.0892 -35.2732 -35.1993 -35.1144 -13.2531 -12.5614  -5.2296  -4.0758
    -4.0257  -3.2921  -2.1253  -1.3692  -1.0370   1.7959   2.2412   2.6043
     3.9498

     occupation numbers 
     1.0000   1.0000   1.0000   1.0000   1.0000   1.0000   1.0000   1.0000
     1.0000   1.0000   1.0000   1.0000   1.0000   0.0000   0.0000   0.0000
     0.0000

          k = 0.1111 0.4491 0.0000 (  8045 PWs)   bands (ev):

   -61.0788 -35.3667 -35.1783 -35.1466 -12.6759 -12.3357  -5.6176  -4.8318
    -4.1018  -3.4199  -2.0777  -1.8245  -0.8976   1.9975   2.3621   3.2312
     4.1161

     occupation numbers 
     1.0000   1.0000   1.0000   1.0000   1.0000   1.0000   1.0000   1.0000
     1.0000   1.0000   1.0000   1.0000   1.0000   0.0000   0.0000   0.0000
     0.0000

          k = 0.1111 0.5774 0.0000 (  8030 PWs)   bands (ev):

   -61.0747 -35.4032 -35.1700 -35.1594 -12.4182 -12.2375  -5.8201  -5.1490
    -4.2439  -3.4136  -2.0431  -1.9885  -0.6462   2.0035   2.6335   3.6395
     3.9540

     occupation numbers 
     1.0000   1.0000   1.0000   1.0000   1.0000   1.0000   1.0000   1.0000
     1.0000   1.0000   1.0000   1.0000   1.0000   0.0000   0.0000   0.0000
     0.0000

          k = 0.2222 0.3849 0.0000 (  8055 PWs)   bands (ev):

   -61.0796 -35.3333 -35.1798 -35.1718 -12.7287 -12.3462  -5.3533  -4.7941
    -3.8770  -3.5285  -2.7577  -1.5960  -0.9320   1.9618   2.3605   2.8023
     4.3029

     occupation numbers 
     1.0000   1.0000   1.0000   1.0000   1.0000   1.0000   1.0000   1.0000
     1.0000   1.0000   1.0000   1.0000   1.0000   0.0000   0.0000   0.0000
     0.0000

          k = 0.2222 0.5132 0.0000 (  8041 PWs)   bands (ev):

   -61.0733 -35.3622 -35.2192 -35.1671 -12.3453 -12.1847  -5.3929  -5.3507
    -4.0401  -3.3213  -3.1724  -2.0605  -0.5515   1.7935   2.9074   3.0376
     4.4216

     occupation numbers 
     1.0000   1.0000   1.0000   1.0000   1.0000   1.0000   1.0000   1.0000
     1.0000   1.0000   1.0000   1.0000   1.0000   0.0000   0.0000   0.0000
     0.0000

          k = 0.3333 0.5774 0.0000 (  7992 PWs)   bands (ev):

   -61.0711 -35.3263 -35.2822 -35.1627 -12.2112 -12.1170  -5.6483  -4.8118
    -4.3003  -3.7918  -3.0805  -2.3437  -0.2527   1.4065   2.8910   3.3438
     4.6631

     occupation numbers 
     1.0000   1.0000   1.0000   1.0000   1.0000   1.0000   1.0000   1.0000
     1.0000   1.0000   1.0000   1.0000   1.0000   0.0000   0.0000   0.0000
     0.0000

     the Fermi energy is     0.6723 ev

!    total energy              =    -187.73261313 Ry
     estimated scf accuracy    <          7.4E-09 Ry
     smearing contrib. (-TS)   =      -0.00000000 Ry
     internal energy E=F+TS    =    -187.73261313 Ry

     The total energy is F=E-TS. E is the sum of the following terms:
     one-electron contribution =    -901.60807099 Ry
     hartree contribution      =     451.90770433 Ry
     xc contribution           =     -36.28683036 Ry
     ewald contribution        =     298.25458389 Ry

     convergence has been achieved in   9 iterations

     negative rho (up, down):  2.050E-04 0.000E+00

     Forces acting on atoms (cartesian axes, Ry/au):

     atom    1 type  1   force =     0.00000000    0.00000000    0.00000000
     atom    2 type  2   force =     0.00000000   -0.00000000    0.00784140
     atom    3 type  2   force =     0.00000000   -0.00000000   -0.00784140
     The non-local contrib.  to forces
     atom    1 type  1   force =     0.00000000    0.00000000    0.00000000
     atom    2 type  2   force =     0.00000000    0.00000000   -0.27430535
     atom    3 type  2   force =     0.00000000    0.00000000    0.27430535
     The ionic contribution  to forces
     atom    1 type  1   force =     0.00000000    0.00000005   -0.00000000
     atom    2 type  2   force =     0.00000004   -0.00000002   34.37609750
     atom    3 type  2   force =    -0.00000004   -0.00000002  -34.37609750
     The local contribution  to forces
     atom    1 type  1   force =    -0.00000000    0.00000000   -0.00000000
     atom    2 type  2   force =     0.00000012   -0.00000007  -34.10816244
     atom    3 type  2   force =    -0.00000012   -0.00000007   34.10816244
     The core correction contribution to forces
     atom    1 type  1   force =     0.00000000   -0.00000000    0.00000000
     atom    2 type  2   force =    -0.00000001    0.00000001    0.01401240
     atom    3 type  2   force =     0.00000001    0.00000001   -0.01401240
     The Hubbard contrib.    to forces
     atom    1 type  1   force =     0.00000000    0.00000000    0.00000000
     atom    2 type  2   force =     0.00000000    0.00000000    0.00000000
     atom    3 type  2   force =     0.00000000    0.00000000    0.00000000
     The SCF correction term to forces
     atom    1 type  1   force =    -0.00000000    0.00000000   -0.00000000
     atom    2 type  2   force =     0.00000000   -0.00000000    0.00019931
     atom    3 type  2   force =    -0.00000000   -0.00000000   -0.00019931

     Total force =     0.011089     Total SCF correction =     0.000282


     Computing stress (Cartesian axis) and pressure


     negative rho (up, down):  2.050E-04 0.000E+00
          total   stress  (Ry/bohr**3)                   (kbar)     P=        3.56
   0.00001374   0.00000000  -0.00000000            2.02        0.00       -0.00
   0.00000000   0.00001374  -0.00000000            0.00        2.02       -0.00
   0.00000000  -0.00000000   0.00004514            0.00       -0.00        6.64

     kinetic stress (kbar)   4238.78      0.00      0.00
                                0.00   4238.78      0.00
                                0.00      0.00   4298.50

     local   stress (kbar)-127236.06      0.00     -0.00
                                0.00-127236.06      0.00
                               -0.00      0.00 124886.81

     nonloc. stress (kbar)   4464.90      0.00      0.00
                                0.00   4464.90      0.00
                                0.00     -0.00   4478.28

     hartree stress (kbar)  62339.28      0.00     -0.00
                                0.00  62339.28     -0.00
                               -0.00     -0.00 -59955.98

     exc-cor stress (kbar)    318.02     -0.00      0.00
                               -0.00    318.02      0.00
                                0.00      0.00    317.13

     corecor stress (kbar)  -1659.45      0.00     -0.00
                                0.00  -1659.45      0.00
                               -0.00      0.00  -1661.26

     ewald   stress (kbar)  57536.55      0.00      0.00
                                0.00  57536.55      0.00
                                0.00      0.00 -72356.84

     hubbard stress (kbar)      0.00      0.00      0.00
                                0.00      0.00      0.00
                                0.00      0.00      0.00

     DFT-D   stress (kbar)      0.00      0.00      0.00
                                0.00      0.00      0.00
                                0.00      0.00      0.00

     XDM     stress (kbar)      0.00      0.00      0.00
                                0.00      0.00      0.00
                                0.00      0.00      0.00

     dft-nl  stress (kbar)      0.00      0.00      0.00
                                0.00      0.00      0.00
                                0.00      0.00      0.00

     TS-vdW  stress (kbar)      0.00      0.00      0.00
                                0.00      0.00      0.00
                                0.00      0.00      0.00

     MDB     stress (kbar)      0.00      0.00      0.00
                                0.00      0.00      0.00
                                0.00      0.00      0.00

     3D-RISM stress (kbar)      0.00      0.00      0.00
                                0.00      0.00      0.00
                                0.00      0.00      0.00


     BFGS Geometry Optimization
     Energy error            =      0.0E+00 Ry
     Gradient error          =      7.8E-03 Ry/Bohr
     Cell gradient error     =      2.0E+00 kbar

     number of scf cycles    =   1
     number of bfgs steps    =   0

     enthalpy           new  =    -187.7326131326 Ry

     new trust radius        =       0.0078414007 bohr
     new conv_thr            =       0.0000000100 Ry

     new unit-cell volume =   1027.82652 a.u.^3 (   152.30818 Ang^3 )
     density =      1.74518 g/cm^3

CELL_PARAMETERS (angstrom)
   3.185219619   0.000000000   0.000000000
  -1.592609809   2.758481106   0.000000000
   0.000000000   0.000000000  17.334599950

ATOMIC_POSITIONS (crystal)
Mo            0.0000000000        0.0000000000        0.5000000000
S             0.3333333300        0.6666666700        0.5897323562
S             0.3333333400        0.6666666700        0.4102676438



     Writing config-only to output data dir ./tmp/pwscf.save/
     NEW-OLD atomic charge density approx. for the potential

     negative rho (up, down):  2.078E-04 0.000E+00
     extrapolated charge   26.01785, renormalised to   26.00000

     total cpu time spent up to now is      165.7 secs

     Self-consistent Calculation

     iteration #  1     ecut=    60.00 Ry     beta= 0.70
     Davidson diagonalization with overlap

---- Real-time Memory Report at c_bands before calling an iterative solver
          1546 MiB given to the printing process from OS
             0 MiB allocation reported by mallinfo(arena+hblkhd)
          1226 MiB available memory on the node where the printing process lives
------------------
     ethr =  1.00E-06,  avg # of iterations =  5.6

     negative rho (up, down):  2.003E-04 0.000E+00

     total cpu time spent up to now is      174.0 secs

     total energy              =    -187.73015917 Ry
     estimated scf accuracy    <       0.00250417 Ry

     iteration #  2     ecut=    60.00 Ry     beta= 0.70
     Davidson diagonalization with overlap

---- Real-time Memory Report at c_bands before calling an iterative solver
          1546 MiB given to the printing process from OS
             0 MiB allocation reported by mallinfo(arena+hblkhd)
          1206 MiB available memory on the node where the printing process lives
------------------
     ethr =  9.63E-06,  avg # of iterations =  4.9

     negative rho (up, down):  2.044E-04 0.000E+00

     total cpu time spent up to now is      181.2 secs

     total energy              =    -187.72853339 Ry
     estimated scf accuracy    <       0.05334845 Ry

     iteration #  3     ecut=    60.00 Ry     beta= 0.70
     Davidson diagonalization with overlap

---- Real-time Memory Report at c_bands before calling an iterative solver
          1546 MiB given to the printing process from OS
             0 MiB allocation reported by mallinfo(arena+hblkhd)
          1199 MiB available memory on the node where the printing process lives
------------------
     ethr =  9.63E-06,  avg # of iterations =  4.0

     negative rho (up, down):  2.034E-04 0.000E+00

     total cpu time spent up to now is      187.7 secs

     total energy              =    -187.73275077 Ry
     estimated scf accuracy    <       0.00173138 Ry

     iteration #  4     ecut=    60.00 Ry     beta= 0.70
     Davidson diagonalization with overlap

---- Real-time Memory Report at c_bands before calling an iterative solver
          1546 MiB given to the printing process from OS
             0 MiB allocation reported by mallinfo(arena+hblkhd)
          1172 MiB available memory on the node where the printing process lives
------------------
     ethr =  6.66E-06,  avg # of iterations =  1.0

     negative rho (up, down):  2.043E-04 0.000E+00

     total cpu time spent up to now is      193.0 secs

     total energy              =    -187.73268163 Ry
     estimated scf accuracy    <       0.00078563 Ry

     iteration #  5     ecut=    60.00 Ry     beta= 0.70
     Davidson diagonalization with overlap

---- Real-time Memory Report at c_bands before calling an iterative solver
          1546 MiB given to the printing process from OS
             0 MiB allocation reported by mallinfo(arena+hblkhd)
          1177 MiB available memory on the node where the printing process lives
------------------
     ethr =  3.02E-06,  avg # of iterations =  1.9

     negative rho (up, down):  2.048E-04 0.000E+00

     total cpu time spent up to now is      198.7 secs

     total energy              =    -187.73269771 Ry
     estimated scf accuracy    <       0.00018508 Ry

     iteration #  6     ecut=    60.00 Ry     beta= 0.70
     Davidson diagonalization with overlap

---- Real-time Memory Report at c_bands before calling an iterative solver
          1546 MiB given to the printing process from OS
             0 MiB allocation reported by mallinfo(arena+hblkhd)
          1171 MiB available memory on the node where the printing process lives
------------------
     ethr =  7.12E-07,  avg # of iterations =  2.2

     negative rho (up, down):  2.046E-04 0.000E+00

     total cpu time spent up to now is      204.3 secs

     total energy              =    -187.73271485 Ry
     estimated scf accuracy    <       0.00003862 Ry

     iteration #  7     ecut=    60.00 Ry     beta= 0.70
     Davidson diagonalization with overlap

---- Real-time Memory Report at c_bands before calling an iterative solver
          1546 MiB given to the printing process from OS
             0 MiB allocation reported by mallinfo(arena+hblkhd)
          1173 MiB available memory on the node where the printing process lives
------------------
     ethr =  1.49E-07,  avg # of iterations =  2.0

     negative rho (up, down):  2.045E-04 0.000E+00

     total cpu time spent up to now is      210.1 secs

     total energy              =    -187.73271713 Ry
     estimated scf accuracy    <       0.00002163 Ry

     iteration #  8     ecut=    60.00 Ry     beta= 0.70
     Davidson diagonalization with overlap

---- Real-time Memory Report at c_bands before calling an iterative solver
          1546 MiB given to the printing process from OS
             0 MiB allocation reported by mallinfo(arena+hblkhd)
          1167 MiB available memory on the node where the printing process lives
------------------
     ethr =  8.32E-08,  avg # of iterations =  1.1

     negative rho (up, down):  2.049E-04 0.000E+00

     total cpu time spent up to now is      215.4 secs

     total energy              =    -187.73271372 Ry
     estimated scf accuracy    <       0.00001519 Ry

     iteration #  9     ecut=    60.00 Ry     beta= 0.70
     Davidson diagonalization with overlap

---- Real-time Memory Report at c_bands before calling an iterative solver
          1546 MiB given to the printing process from OS
             0 MiB allocation reported by mallinfo(arena+hblkhd)
          1164 MiB available memory on the node where the printing process lives
------------------
     ethr =  5.84E-08,  avg # of iterations =  2.0

     negative rho (up, down):  2.050E-04 0.000E+00

     total cpu time spent up to now is      221.1 secs

     total energy              =    -187.73271598 Ry
     estimated scf accuracy    <       0.00000002 Ry

     iteration # 10     ecut=    60.00 Ry     beta= 0.70
     Davidson diagonalization with overlap

---- Real-time Memory Report at c_bands before calling an iterative solver
          1546 MiB given to the printing process from OS
             0 MiB allocation reported by mallinfo(arena+hblkhd)
          1163 MiB available memory on the node where the printing process lives
------------------
     ethr =  8.07E-11,  avg # of iterations =  5.1

     negative rho (up, down):  2.049E-04 0.000E+00

     total cpu time spent up to now is      229.1 secs

     total energy              =    -187.73271613 Ry
     estimated scf accuracy    <       0.00000051 Ry

     iteration # 11     ecut=    60.00 Ry     beta= 0.70
     Davidson diagonalization with overlap

---- Real-time Memory Report at c_bands before calling an iterative solver
          1546 MiB given to the printing process from OS
             0 MiB allocation reported by mallinfo(arena+hblkhd)
          1163 MiB available memory on the node where the printing process lives
------------------
     ethr =  8.07E-11,  avg # of iterations =  3.0

     negative rho (up, down):  2.048E-04 0.000E+00

     total cpu time spent up to now is      235.1 secs

     total energy              =    -187.73271610 Ry
     estimated scf accuracy    <       0.00000012 Ry

     iteration # 12     ecut=    60.00 Ry     beta= 0.70
     Davidson diagonalization with overlap

---- Real-time Memory Report at c_bands before calling an iterative solver
          1546 MiB given to the printing process from OS
             0 MiB allocation reported by mallinfo(arena+hblkhd)
          1166 MiB available memory on the node where the printing process lives
------------------
     ethr =  8.07E-11,  avg # of iterations =  3.0

     negative rho (up, down):  2.048E-04 0.000E+00

     total cpu time spent up to now is      241.4 secs

     total energy              =    -187.73271613 Ry
     estimated scf accuracy    <       0.00000001 Ry

     iteration # 13     ecut=    60.00 Ry     beta= 0.70
     Davidson diagonalization with overlap

---- Real-time Memory Report at c_bands before calling an iterative solver
          1546 MiB given to the printing process from OS
             0 MiB allocation reported by mallinfo(arena+hblkhd)
          1166 MiB available memory on the node where the printing process lives
------------------
     ethr =  4.36E-11,  avg # of iterations =  1.0

     negative rho (up, down):  2.048E-04 0.000E+00

     total cpu time spent up to now is      246.8 secs

     End of self-consistent calculation

          k = 0.0000 0.0000 0.0000 (  8091 PWs)   bands (ev):

   -61.1177 -35.2499 -35.0490 -35.0490 -14.3194 -12.9919  -5.8344  -2.8701
    -2.8701  -1.9686  -1.7582  -1.7582  -0.1941   2.5333   2.5333   2.7998
     2.7998

     occupation numbers 
     1.0000   1.0000   1.0000   1.0000   1.0000   1.0000   1.0000   1.0000
     1.0000   1.0000   1.0000   1.0000   1.0000   0.0000   0.0000   0.0000
     0.0000

          k =-0.0000 0.1283 0.0000 (  8095 PWs)   bands (ev):

   -61.1134 -35.2413 -35.0932 -35.0591 -14.1398 -12.9195  -5.6344  -3.2514
    -2.7001  -2.6828  -2.0325  -1.3141  -0.3021   2.3491   2.3695   2.6027
     2.8377

     occupation numbers 
     1.0000   1.0000   1.0000   1.0000   1.0000   1.0000   1.0000   1.0000
     1.0000   1.0000   1.0000   1.0000   1.0000   0.0000   0.0000   0.0000
     0.0000

          k =-0.0000 0.2565 0.0000 (  8071 PWs)   bands (ev):

   -61.1025 -35.2192 -35.2038 -35.0844 -13.6524 -12.7237  -5.2519  -3.9397
    -3.5742  -2.5920  -2.1927  -1.4277  -0.7785   1.9752   2.2214   2.5360
     3.4263

     occupation numbers 
     1.0000   1.0000   1.0000   1.0000   1.0000   1.0000   1.0000   1.0000
     1.0000   1.0000   1.0000   1.0000   1.0000   0.0000   0.0000   0.0000
     0.0000

          k =-0.0000 0.3848 0.0000 (  8069 PWs)   bands (ev):

   -61.0900 -35.3272 -35.1941 -35.1131 -13.0192 -12.4744  -5.4677  -4.3906
    -4.1245  -3.0929  -1.8201  -1.6234  -1.1835   1.9873   2.1301   3.1736
     3.8780

     occupation numbers 
     1.0000   1.0000   1.0000   1.0000   1.0000   1.0000   1.0000   1.0000
     1.0000   1.0000   1.0000   1.0000   1.0000   0.0000   0.0000   0.0000
     0.0000

          k =-0.0000 0.5130 0.0000 (  8038 PWs)   bands (ev):

   -61.0818 -35.4065 -35.1776 -35.1318 -12.5354 -12.2917  -5.9157  -4.9163
    -4.2542  -3.3722  -2.0411  -1.2705  -0.9322   1.9885   2.4544   3.6021
     4.0815

     occupation numbers 
     1.0000   1.0000   1.0000   1.0000   1.0000   1.0000   1.0000   1.0000
     1.0000   1.0000   1.0000   1.0000   1.0000   0.0000   0.0000   0.0000
     0.0000

          k = 0.1111 0.1924 0.0000 (  8097 PWs)   bands (ev):

   -61.1058 -35.2259 -35.1667 -35.0807 -13.8057 -12.7846  -5.3205  -3.7671
    -3.2304  -2.6915  -2.3798  -1.1415  -0.6046   1.9816   2.2440   2.3187
     3.3732

     occupation numbers 
     1.0000   1.0000   1.0000   1.0000   1.0000   1.0000   1.0000   1.0000
     1.0000   1.0000   1.0000   1.0000   1.0000   0.0000   0.0000   0.0000
     0.0000

          k = 0.1111 0.3206 0.0000 (  8086 PWs)   bands (ev):

   -61.0941 -35.2745 -35.2023 -35.1168 -13.2396 -12.5569  -5.2092  -4.0671
    -4.0144  -3.2805  -2.1118  -1.3768  -1.0356   1.7822   2.2311   2.5941
     3.9295

     occupation numbers 
     1.0000   1.0000   1.0000   1.0000   1.0000   1.0000   1.0000   1.0000
     1.0000   1.0000   1.0000   1.0000   1.0000   0.0000   0.0000   0.0000
     0.0000

          k = 0.1111 0.4489 0.0000 (  8045 PWs)   bands (ev):

   -61.0837 -35.3674 -35.1815 -35.1489 -12.6632 -12.3291  -5.6014  -4.8208
    -4.0932  -3.4088  -2.0700  -1.8330  -0.8922   1.9883   2.3565   3.2164
     4.0943

     occupation numbers 
     1.0000   1.0000   1.0000   1.0000   1.0000   1.0000   1.0000   1.0000
     1.0000   1.0000   1.0000   1.0000   1.0000   0.0000   0.0000   0.0000
     0.0000

          k = 0.1111 0.5772 0.0000 (  8030 PWs)   bands (ev):

   -61.0796 -35.4037 -35.1733 -35.1616 -12.4057 -12.2299  -5.8075  -5.1385
    -4.2324  -3.4022  -2.0522  -1.9830  -0.6420   2.0015   2.6263   3.6204
     3.9357

     occupation numbers 
     1.0000   1.0000   1.0000   1.0000   1.0000   1.0000   1.0000   1.0000
     1.0000   1.0000   1.0000   1.0000   1.0000   0.0000   0.0000   0.0000
     0.0000

          k = 0.2221 0.3848 0.0000 (  8055 PWs)   bands (ev):

   -61.0845 -35.3342 -35.1831 -35.1739 -12.7161 -12.3399  -5.3354  -4.7781
    -3.8707  -3.5237  -2.7489  -1.6044  -0.9257   1.9474   2.3583   2.7892
     4.2798

     occupation numbers 
     1.0000   1.0000   1.0000   1.0000   1.0000   1.0000   1.0000   1.0000
     1.0000   1.0000   1.0000   1.0000   1.0000   0.0000   0.0000   0.0000
     0.0000

          k = 0.2221 0.5130 0.0000 (  8041 PWs)   bands (ev):

   -61.0782 -35.3629 -35.2211 -35.1705 -12.3331 -12.1771  -5.3761  -5.3381
    -4.0302  -3.3187  -3.1656  -2.0689  -0.5462   1.7936   2.8959   3.0193
     4.4014

     occupation numbers 
     1.0000   1.0000   1.0000   1.0000   1.0000   1.0000   1.0000   1.0000
     1.0000   1.0000   1.0000   1.0000   1.0000   0.0000   0.0000   0.0000
     0.0000

          k = 0.3332 0.5772 0.0000 (  7992 PWs)   bands (ev):

   -61.0760 -35.3271 -35.2838 -35.1661 -12.1991 -12.1091  -5.6296  -4.8027
    -4.2892  -3.7834  -3.0809  -2.3517  -0.2495   1.4134   2.8715   3.3260
     4.6425

     occupation numbers 
     1.0000   1.0000   1.0000   1.0000   1.0000   1.0000   1.0000   1.0000
     1.0000   1.0000   1.0000   1.0000   1.0000   0.0000   0.0000   0.0000
     0.0000

     the Fermi energy is     0.6529 ev

!    total energy              =    -187.73271613 Ry
     estimated scf accuracy    <          3.5E-09 Ry
     smearing contrib. (-TS)   =      -0.00000000 Ry
     internal energy E=F+TS    =    -187.73271613 Ry

     The total energy is F=E-TS. E is the sum of the following terms:
     one-electron contribution =    -899.99324900 Ry
     hartree contribution      =     451.09911487 Ry
     xc contribution           =     -36.27874800 Ry
     ewald contribution        =     297.44016600 Ry

     convergence has been achieved in  13 iterations

     negative rho (up, down):  2.048E-04 0.000E+00

     Forces acting on atoms (cartesian axes, Ry/au):

     atom    1 type  1   force =     0.00000000   -0.00000000    0.00000000
     atom    2 type  2   force =    -0.00000000    0.00000000    0.00448009
     atom    3 type  2   force =     0.00000000    0.00000000   -0.00448009
     The non-local contrib.  to forces
     atom    1 type  1   force =     0.00000000   -0.00000000    0.00000000
     atom    2 type  2   force =    -0.00000000   -0.00000000   -0.27632168
     atom    3 type  2   force =     0.00000000   -0.00000000    0.27632168
     The ionic contribution  to forces
     atom    1 type  1   force =     0.00000000    0.00000005    0.00000000
     atom    2 type  2   force =     0.00000004   -0.00000002   34.34089830
     atom    3 type  2   force =    -0.00000004   -0.00000002  -34.34089830
     The local contribution  to forces
     atom    1 type  1   force =    -0.00000000    0.00000000   -0.00000000
     atom    2 type  2   force =     0.00000012   -0.00000007  -34.07437702
     atom    3 type  2   force =    -0.00000012   -0.00000007   34.07437702
     The core correction contribution to forces
     atom    1 type  1   force =    -0.00000000   -0.00000000   -0.00000000
     atom    2 type  2   force =    -0.00000001    0.00000001    0.01414180
     atom    3 type  2   force =     0.00000001    0.00000001   -0.01414180
     The Hubbard contrib.    to forces
     atom    1 type  1   force =     0.00000000    0.00000000    0.00000000
     atom    2 type  2   force =     0.00000000    0.00000000    0.00000000
     atom    3 type  2   force =     0.00000000    0.00000000    0.00000000
     The SCF correction term to forces
     atom    1 type  1   force =    -0.00000000    0.00000000   -0.00000000
     atom    2 type  2   force =     0.00000000   -0.00000000    0.00013868
     atom    3 type  2   force =    -0.00000000   -0.00000000   -0.00013868

     Total force =     0.006336     Total SCF correction =     0.000196


     Computing stress (Cartesian axis) and pressure


     negative rho (up, down):  2.048E-04 0.000E+00
          total   stress  (Ry/bohr**3)                   (kbar)     P=        1.77
   0.00000497   0.00000000   0.00000000            0.73        0.00        0.00
   0.00000000   0.00000497   0.00000000            0.00        0.73        0.00
   0.00000000   0.00000000   0.00002616            0.00        0.00        3.85

     kinetic stress (kbar)   4234.71     -0.00      0.00
                               -0.00   4234.71     -0.00
                                0.00     -0.00   4291.75

     local   stress (kbar)-126900.46      0.00     -0.00
                                0.00-126900.46     -0.00
                               -0.00     -0.00 124538.27

     nonloc. stress (kbar)   4461.29     -0.00      0.00
                               -0.00   4461.29     -0.00
                                0.00     -0.00   4474.51

     hartree stress (kbar)  62177.63     -0.00      0.00
                               -0.00  62177.63      0.00
                                0.00      0.00 -59792.83

     exc-cor stress (kbar)    318.12     -0.00      0.00
                               -0.00    318.12      0.00
                                0.00      0.00    317.24

     corecor stress (kbar)  -1658.27      0.00     -0.00
                                0.00  -1658.27      0.00
                               -0.00      0.00  -1660.06

     ewald   stress (kbar)  57367.70     -0.00      0.00
                               -0.00  57367.70      0.00
                                0.00      0.00 -72165.03

     hubbard stress (kbar)      0.00      0.00      0.00
                                0.00      0.00      0.00
                                0.00      0.00      0.00

     DFT-D   stress (kbar)      0.00      0.00      0.00
                                0.00      0.00      0.00
                                0.00      0.00      0.00

     XDM     stress (kbar)      0.00      0.00      0.00
                                0.00      0.00      0.00
                                0.00      0.00      0.00

     dft-nl  stress (kbar)      0.00      0.00      0.00
                                0.00      0.00      0.00
                                0.00      0.00      0.00

     TS-vdW  stress (kbar)      0.00      0.00      0.00
                                0.00      0.00      0.00
                                0.00      0.00      0.00

     MDB     stress (kbar)      0.00      0.00      0.00
                                0.00      0.00      0.00
                                0.00      0.00      0.00

     3D-RISM stress (kbar)      0.00      0.00      0.00
                                0.00      0.00      0.00
                                0.00      0.00      0.00

     Energy error            =      1.0E-04 Ry
     Gradient error          =      4.5E-03 Ry/Bohr
     Cell gradient error     =      7.3E-01 kbar

     number of scf cycles    =   2
     number of bfgs steps    =   1

     enthalpy           old  =    -187.7326131326 Ry
     enthalpy           new  =    -187.7327161281 Ry

     CASE: enthalpy          _new < enthalpy          _old

     new trust radius        =       0.0086255408 bohr
     new conv_thr            =       0.0000000010 Ry

     new unit-cell volume =   1028.32146 a.u.^3 (   152.38152 Ang^3 )
     density =      1.74434 g/cm^3

CELL_PARAMETERS (angstrom)
   3.185986426   0.000000000   0.000000000
  -1.592993213   2.759145181   0.000000000
   0.000000000   0.000000000  17.334599950

ATOMIC_POSITIONS (crystal)
Mo            0.0000000000        0.0000000000        0.5000000000
S             0.3333333300        0.6666666700        0.5899956700
S             0.3333333400        0.6666666700        0.4100043300



     Writing config-only to output data dir ./tmp/pwscf.save/
     NEW-OLD atomic charge density approx. for the potential

     negative rho (up, down):  2.068E-04 0.000E+00
     extrapolated charge   26.01251, renormalised to   26.00000

     total cpu time spent up to now is      330.8 secs

     Self-consistent Calculation

     iteration #  1     ecut=    60.00 Ry     beta= 0.70
     Davidson diagonalization with overlap

---- Real-time Memory Report at c_bands before calling an iterative solver
          1591 MiB given to the printing process from OS
             0 MiB allocation reported by mallinfo(arena+hblkhd)
          1233 MiB available memory on the node where the printing process lives
------------------
     ethr =  1.00E-06,  avg # of iterations =  5.0

     negative rho (up, down):  2.015E-04 0.000E+00

     total cpu time spent up to now is      338.9 secs

     total energy              =    -187.73140097 Ry
     estimated scf accuracy    <       0.00135044 Ry

     iteration #  2     ecut=    60.00 Ry     beta= 0.70
     Davidson diagonalization with overlap

---- Real-time Memory Report at c_bands before calling an iterative solver
          1591 MiB given to the printing process from OS
             0 MiB allocation reported by mallinfo(arena+hblkhd)
          1205 MiB available memory on the node where the printing process lives
------------------
     ethr =  5.19E-06,  avg # of iterations =  5.0

     negative rho (up, down):  2.043E-04 0.000E+00

     total cpu time spent up to now is      346.3 secs

     total energy              =    -187.73050469 Ry
     estimated scf accuracy    <       0.02858171 Ry

     iteration #  3     ecut=    60.00 Ry     beta= 0.70
     Davidson diagonalization with overlap

---- Real-time Memory Report at c_bands before calling an iterative solver
          1591 MiB given to the printing process from OS
             0 MiB allocation reported by mallinfo(arena+hblkhd)
          1199 MiB available memory on the node where the printing process lives
------------------
     ethr =  5.19E-06,  avg # of iterations =  4.0

     negative rho (up, down):  2.037E-04 0.000E+00

     total cpu time spent up to now is      353.8 secs

     total energy              =    -187.73277913 Ry
     estimated scf accuracy    <       0.00090072 Ry

     iteration #  4     ecut=    60.00 Ry     beta= 0.70
     Davidson diagonalization with overlap

---- Real-time Memory Report at c_bands before calling an iterative solver
          1591 MiB given to the printing process from OS
             0 MiB allocation reported by mallinfo(arena+hblkhd)
          1146 MiB available memory on the node where the printing process lives
------------------
     ethr =  3.46E-06,  avg # of iterations =  1.1

     negative rho (up, down):  2.044E-04 0.000E+00

     total cpu time spent up to now is      359.5 secs

     total energy              =    -187.73273939 Ry
     estimated scf accuracy    <       0.00040299 Ry

     iteration #  5     ecut=    60.00 Ry     beta= 0.70
     Davidson diagonalization with overlap

---- Real-time Memory Report at c_bands before calling an iterative solver
          1591 MiB given to the printing process from OS
             0 MiB allocation reported by mallinfo(arena+hblkhd)
          1113 MiB available memory on the node where the printing process lives
------------------
     ethr =  1.55E-06,  avg # of iterations =  1.9

     negative rho (up, down):  2.048E-04 0.000E+00

     total cpu time spent up to now is      365.4 secs

     total energy              =    -187.73275191 Ry
     estimated scf accuracy    <       0.00007403 Ry

     iteration #  6     ecut=    60.00 Ry     beta= 0.70
     Davidson diagonalization with overlap

---- Real-time Memory Report at c_bands before calling an iterative solver
          1591 MiB given to the printing process from OS
             0 MiB allocation reported by mallinfo(arena+hblkhd)
          1098 MiB available memory on the node where the printing process lives
------------------
     ethr =  2.85E-07,  avg # of iterations =  2.5

     negative rho (up, down):  2.046E-04 0.000E+00

     total cpu time spent up to now is      371.5 secs

     total energy              =    -187.73276250 Ry
     estimated scf accuracy    <       0.00000665 Ry

     iteration #  7     ecut=    60.00 Ry     beta= 0.70
     Davidson diagonalization with overlap

---- Real-time Memory Report at c_bands before calling an iterative solver
          1591 MiB given to the printing process from OS
             0 MiB allocation reported by mallinfo(arena+hblkhd)
          1091 MiB available memory on the node where the printing process lives
------------------
     ethr =  2.56E-08,  avg # of iterations =  3.2

     negative rho (up, down):  2.044E-04 0.000E+00

     total cpu time spent up to now is      377.5 secs

     total energy              =    -187.73276392 Ry
     estimated scf accuracy    <       0.00000213 Ry

     iteration #  8     ecut=    60.00 Ry     beta= 0.70
     Davidson diagonalization with overlap

---- Real-time Memory Report at c_bands before calling an iterative solver
          1591 MiB given to the printing process from OS
             0 MiB allocation reported by mallinfo(arena+hblkhd)
          1088 MiB available memory on the node where the printing process lives
------------------
     ethr =  8.19E-09,  avg # of iterations =  1.5

     negative rho (up, down):  2.046E-04 0.000E+00

     total cpu time spent up to now is      382.9 secs

     total energy              =    -187.73276317 Ry
     estimated scf accuracy    <       0.00000316 Ry

     iteration #  9     ecut=    60.00 Ry     beta= 0.70
     Davidson diagonalization with overlap

---- Real-time Memory Report at c_bands before calling an iterative solver
          1591 MiB given to the printing process from OS
             0 MiB allocation reported by mallinfo(arena+hblkhd)
          1093 MiB available memory on the node where the printing process lives
------------------
     ethr =  8.19E-09,  avg # of iterations =  2.0

     negative rho (up, down):  2.046E-04 0.000E+00

     total cpu time spent up to now is      388.8 secs

     total energy              =    -187.73276354 Ry
     estimated scf accuracy    <       0.00000002 Ry

     iteration # 10     ecut=    60.00 Ry     beta= 0.70
     Davidson diagonalization with overlap

---- Real-time Memory Report at c_bands before calling an iterative solver
          1591 MiB given to the printing process from OS
             0 MiB allocation reported by mallinfo(arena+hblkhd)
          1075 MiB available memory on the node where the printing process lives
------------------
     ethr =  8.95E-11,  avg # of iterations =  4.0

     negative rho (up, down):  2.046E-04 0.000E+00

     total cpu time spent up to now is      395.4 secs

     total energy              =    -187.73276355 Ry
     estimated scf accuracy    <       0.00000013 Ry

     iteration # 11     ecut=    60.00 Ry     beta= 0.70
     Davidson diagonalization with overlap

---- Real-time Memory Report at c_bands before calling an iterative solver
          1591 MiB given to the printing process from OS
             0 MiB allocation reported by mallinfo(arena+hblkhd)
          1066 MiB available memory on the node where the printing process lives
------------------
     ethr =  8.95E-11,  avg # of iterations =  2.5

     negative rho (up, down):  2.046E-04 0.000E+00

     total cpu time spent up to now is      401.2 secs

     End of self-consistent calculation

          k = 0.0000 0.0000 0.0000 (  8091 PWs)   bands (ev):

   -61.1209 -35.2512 -35.0501 -35.0501 -14.3020 -12.9912  -5.8192  -2.8438
    -2.8438  -1.9790  -1.7394  -1.7394  -0.2089   2.5287   2.5287   2.7836
     2.7836

     occupation numbers 
     1.0000   1.0000   1.0000   1.0000   1.0000   1.0000   1.0000   1.0000
     1.0000   1.0000   1.0000   1.0000   1.0000   0.0000   0.0000   0.0000
     0.0000

          k =-0.0000 0.1282 0.0000 (  8095 PWs)   bands (ev):

   -61.1166 -35.2426 -35.0940 -35.0601 -14.1229 -12.9180  -5.6186  -3.2267
    -2.6930  -2.6573  -2.0134  -1.3149  -0.3145   2.3436   2.3533   2.5881
     2.8306

     occupation numbers 
     1.0000   1.0000   1.0000   1.0000   1.0000   1.0000   1.0000   1.0000
     1.0000   1.0000   1.0000   1.0000   1.0000   0.0000   0.0000   0.0000
     0.0000

          k =-0.0000 0.2565 0.0000 (  8071 PWs)   bands (ev):

   -61.1057 -35.2207 -35.2040 -35.0853 -13.6365 -12.7201  -5.2326  -3.9225
    -3.5640  -2.5722  -2.1697  -1.4354  -0.7837   1.9588   2.2106   2.5276
     3.4132

     occupation numbers 
     1.0000   1.0000   1.0000   1.0000   1.0000   1.0000   1.0000   1.0000
     1.0000   1.0000   1.0000   1.0000   1.0000   0.0000   0.0000   0.0000
     0.0000

          k =-0.0000 0.3847 0.0000 (  8069 PWs)   bands (ev):

   -61.0933 -35.3267 -35.1958 -35.1139 -13.0041 -12.4680  -5.4467  -4.3818
    -4.1151  -3.0725  -1.8298  -1.6052  -1.1825   1.9822   2.1171   3.1609
     3.8589

     occupation numbers 
     1.0000   1.0000   1.0000   1.0000   1.0000   1.0000   1.0000   1.0000
     1.0000   1.0000   1.0000   1.0000   1.0000   0.0000   0.0000   0.0000
     0.0000

          k =-0.0000 0.5129 0.0000 (  8038 PWs)   bands (ev):

   -61.0852 -35.4055 -35.1795 -35.1324 -12.5205 -12.2831  -5.9005  -4.9099
    -4.2420  -3.3515  -2.0509  -1.2573  -0.9315   1.9888   2.4483   3.5878
     4.0592

     occupation numbers 
     1.0000   1.0000   1.0000   1.0000   1.0000   1.0000   1.0000   1.0000
     1.0000   1.0000   1.0000   1.0000   1.0000   0.0000   0.0000   0.0000
     0.0000

          k = 0.1110 0.1923 0.0000 (  8097 PWs)   bands (ev):

   -61.1090 -35.2274 -35.1671 -35.0816 -13.7895 -12.7818  -5.3029  -3.7465
    -3.2210  -2.6739  -2.3565  -1.1459  -0.6119   1.9652   2.2380   2.3067
     3.3608

     occupation numbers 
     1.0000   1.0000   1.0000   1.0000   1.0000   1.0000   1.0000   1.0000
     1.0000   1.0000   1.0000   1.0000   1.0000   0.0000   0.0000   0.0000
     0.0000

          k = 0.1110 0.3206 0.0000 (  8086 PWs)   bands (ev):

   -61.0973 -35.2743 -35.2040 -35.1176 -13.2244 -12.5516  -5.1867  -4.0565
    -4.0017  -3.2670  -2.0956  -1.3839  -1.0329   1.7687   2.2226   2.5852
     3.9101

     occupation numbers 
     1.0000   1.0000   1.0000   1.0000   1.0000   1.0000   1.0000   1.0000
     1.0000   1.0000   1.0000   1.0000   1.0000   0.0000   0.0000   0.0000
     0.0000

          k = 0.1110 0.4488 0.0000 (  8045 PWs)   bands (ev):

   -61.0871 -35.3666 -35.1833 -35.1495 -12.6484 -12.3213  -5.5838  -4.8087
    -4.0831  -3.3960  -2.0602  -1.8413  -0.8850   1.9804   2.3532   3.2025
     4.0732

     occupation numbers 
     1.0000   1.0000   1.0000   1.0000   1.0000   1.0000   1.0000   1.0000
     1.0000   1.0000   1.0000   1.0000   1.0000   0.0000   0.0000   0.0000
     0.0000

          k = 0.1110 0.5770 0.0000 (  8030 PWs)   bands (ev):

   -61.0830 -35.4027 -35.1751 -35.1620 -12.3909 -12.2209  -5.7938  -5.1272
    -4.2193  -3.3889  -2.0614  -1.9756  -0.6360   2.0019   2.6214   3.6017
     3.9184

     occupation numbers 
     1.0000   1.0000   1.0000   1.0000   1.0000   1.0000   1.0000   1.0000
     1.0000   1.0000   1.0000   1.0000   1.0000   0.0000   0.0000   0.0000
     0.0000

          k = 0.2221 0.3847 0.0000 (  8055 PWs)   bands (ev):

   -61.0878 -35.3336 -35.1848 -35.1743 -12.7014 -12.3324  -5.3158  -4.7605
    -3.8627  -3.5180  -2.7383  -1.6124  -0.9174   1.9333   2.3590   2.7769
     4.2575

     occupation numbers 
     1.0000   1.0000   1.0000   1.0000   1.0000   1.0000   1.0000   1.0000
     1.0000   1.0000   1.0000   1.0000   1.0000   0.0000   0.0000   0.0000
     0.0000

          k = 0.2221 0.5129 0.0000 (  8041 PWs)   bands (ev):

   -61.0816 -35.3621 -35.2212 -35.1723 -12.3185 -12.1681  -5.3578  -5.3243
    -4.0186  -3.3151  -3.1571  -2.0773  -0.5389   1.7963   2.8861   3.0008
     4.3825

     occupation numbers 
     1.0000   1.0000   1.0000   1.0000   1.0000   1.0000   1.0000   1.0000
     1.0000   1.0000   1.0000   1.0000   1.0000   0.0000   0.0000   0.0000
     0.0000

          k = 0.3331 0.5770 0.0000 (  7992 PWs)   bands (ev):

   -61.0794 -35.3263 -35.2838 -35.1680 -12.1846 -12.0997  -5.6093  -4.7926
    -4.2766  -3.7732  -3.0807  -2.3598  -0.2445   1.4235   2.8514   3.3093
     4.6237

     occupation numbers 
     1.0000   1.0000   1.0000   1.0000   1.0000   1.0000   1.0000   1.0000
     1.0000   1.0000   1.0000   1.0000   1.0000   0.0000   0.0000   0.0000
     0.0000

     the Fermi energy is     0.6353 ev

!    total energy              =    -187.73276357 Ry
     estimated scf accuracy    <          6.5E-11 Ry
     smearing contrib. (-TS)   =      -0.00000000 Ry
     internal energy E=F+TS    =    -187.73276357 Ry

     The total energy is F=E-TS. E is the sum of the following terms:
     one-electron contribution =    -898.43972306 Ry
     hartree contribution      =     450.32226048 Ry
     xc contribution           =     -36.27053625 Ry
     ewald contribution        =     296.65523526 Ry

     convergence has been achieved in  11 iterations

     negative rho (up, down):  2.046E-04 0.000E+00

     Forces acting on atoms (cartesian axes, Ry/au):

     atom    1 type  1   force =     0.00000000   -0.00000000    0.00000000
     atom    2 type  2   force =    -0.00000000    0.00000000    0.00099498
     atom    3 type  2   force =    -0.00000000    0.00000000   -0.00099498
     The non-local contrib.  to forces
     atom    1 type  1   force =    -0.00000000    0.00000000    0.00000000
     atom    2 type  2   force =    -0.00000000    0.00000000   -0.27847998
     atom    3 type  2   force =    -0.00000000    0.00000000    0.27847998
     The ionic contribution  to forces
     atom    1 type  1   force =    -0.00000000    0.00000005    0.00000000
     atom    2 type  2   force =     0.00000004   -0.00000002   34.31253603
     atom    3 type  2   force =    -0.00000004   -0.00000002  -34.31253603
     The local contribution  to forces
     atom    1 type  1   force =    -0.00000000    0.00000000   -0.00000000
     atom    2 type  2   force =     0.00000012   -0.00000007  -34.04733363
     atom    3 type  2   force =    -0.00000012   -0.00000007   34.04733363
     The core correction contribution to forces
     atom    1 type  1   force =     0.00000000   -0.00000000   -0.00000000
     atom    2 type  2   force =    -0.00000001    0.00000001    0.01428118
     atom    3 type  2   force =     0.00000001    0.00000001   -0.01428118
     The Hubbard contrib.    to forces
     atom    1 type  1   force =     0.00000000    0.00000000    0.00000000
     atom    2 type  2   force =     0.00000000    0.00000000    0.00000000
     atom    3 type  2   force =     0.00000000    0.00000000    0.00000000
     The SCF correction term to forces
     atom    1 type  1   force =     0.00000000    0.00000000   -0.00000000
     atom    2 type  2   force =    -0.00000000    0.00000000   -0.00000862
     atom    3 type  2   force =     0.00000000    0.00000000    0.00000862

     Total force =     0.001407     Total SCF correction =     0.000012


     Computing stress (Cartesian axis) and pressure


     negative rho (up, down):  2.046E-04 0.000E+00
          total   stress  (Ry/bohr**3)                   (kbar)     P=       -0.09
  -0.00000364   0.00000000   0.00000000           -0.54        0.00        0.00
   0.00000000  -0.00000364   0.00000000            0.00       -0.54        0.00
   0.00000000   0.00000000   0.00000551            0.00        0.00        0.81

     kinetic stress (kbar)   4231.62     -0.00      0.00
                               -0.00   4231.62     -0.00
                                0.00     -0.00   4285.61

     local   stress (kbar)-126600.76      0.00     -0.00
                                0.00-126600.76      0.00
                               -0.00      0.00 124225.93

     nonloc. stress (kbar)   4458.55     -0.00     -0.00
                               -0.00   4458.55      0.00
                               -0.00      0.00   4471.60

     hartree stress (kbar)  62033.80     -0.00     -0.00
                               -0.00  62033.80     -0.00
                               -0.00     -0.00 -59647.38

     exc-cor stress (kbar)    318.30     -0.00      0.00
                               -0.00    318.30     -0.00
                                0.00     -0.00    317.43

     corecor stress (kbar)  -1657.43      0.00     -0.00
                                0.00  -1657.43      0.00
                               -0.00      0.00  -1659.21

     ewald   stress (kbar)  57215.39     -0.00      0.00
                               -0.00  57215.39      0.00
                                0.00      0.00 -71993.17

     hubbard stress (kbar)      0.00      0.00      0.00
                                0.00      0.00      0.00
                                0.00      0.00      0.00

     DFT-D   stress (kbar)      0.00      0.00      0.00
                                0.00      0.00      0.00
                                0.00      0.00      0.00

     XDM     stress (kbar)      0.00      0.00      0.00
                                0.00      0.00      0.00
                                0.00      0.00      0.00

     dft-nl  stress (kbar)      0.00      0.00      0.00
                                0.00      0.00      0.00
                                0.00      0.00      0.00

     TS-vdW  stress (kbar)      0.00      0.00      0.00
                                0.00      0.00      0.00
                                0.00      0.00      0.00

     MDB     stress (kbar)      0.00      0.00      0.00
                                0.00      0.00      0.00
                                0.00      0.00      0.00

     3D-RISM stress (kbar)      0.00      0.00      0.00
                                0.00      0.00      0.00
                                0.00      0.00      0.00

     Energy error            =      4.7E-05 Ry
     Gradient error          =      9.9E-04 Ry/Bohr
     Cell gradient error     =      5.4E-01 kbar

     number of scf cycles    =   3
     number of bfgs steps    =   2

     enthalpy           old  =    -187.7327161281 Ry
     enthalpy           new  =    -187.7327635684 Ry

     CASE: enthalpy          _new < enthalpy          _old

     new trust radius        =       0.0024025827 bohr
     new conv_thr            =       0.0000000005 Ry

     new unit-cell volume =   1028.16051 a.u.^3 (   152.35767 Ang^3 )
     density =      1.74462 g/cm^3

CELL_PARAMETERS (angstrom)
   3.185737091   0.000000000   0.000000000
  -1.592868546   2.758929251   0.000000000
   0.000000000   0.000000000  17.334599950

ATOMIC_POSITIONS (crystal)
Mo            0.0000000000        0.0000000000        0.5000000000
S             0.3333333300        0.6666666700        0.5900690142
S             0.3333333400        0.6666666700        0.4099309858



     Writing config-only to output data dir ./tmp/pwscf.save/
     NEW-OLD atomic charge density approx. for the potential

     negative rho (up, down):  2.037E-04 0.000E+00
     extrapolated charge   25.99593, renormalised to   26.00000

     total cpu time spent up to now is      486.1 secs

     Self-consistent Calculation

     iteration #  1     ecut=    60.00 Ry     beta= 0.70
     Davidson diagonalization with overlap

---- Real-time Memory Report at c_bands before calling an iterative solver
          1591 MiB given to the printing process from OS
             0 MiB allocation reported by mallinfo(arena+hblkhd)
           885 MiB available memory on the node where the printing process lives
------------------
     ethr =  1.00E-06,  avg # of iterations =  2.0

     negative rho (up, down):  2.051E-04 0.000E+00

     total cpu time spent up to now is      492.4 secs

     total energy              =    -187.73264569 Ry
     estimated scf accuracy    <       0.00011270 Ry

     iteration #  2     ecut=    60.00 Ry     beta= 0.70
     Davidson diagonalization with overlap

---- Real-time Memory Report at c_bands before calling an iterative solver
          1591 MiB given to the printing process from OS
             0 MiB allocation reported by mallinfo(arena+hblkhd)
           834 MiB available memory on the node where the printing process lives
------------------
     ethr =  4.33E-07,  avg # of iterations =  4.7

     negative rho (up, down):  2.046E-04 0.000E+00

     total cpu time spent up to now is      499.1 secs

     total energy              =    -187.73258877 Ry
     estimated scf accuracy    <       0.00239860 Ry

     iteration #  3     ecut=    60.00 Ry     beta= 0.70
     Davidson diagonalization with overlap

---- Real-time Memory Report at c_bands before calling an iterative solver
          1591 MiB given to the printing process from OS
             0 MiB allocation reported by mallinfo(arena+hblkhd)
           823 MiB available memory on the node where the printing process lives
------------------
     ethr =  4.33E-07,  avg # of iterations =  4.0

     negative rho (up, down):  2.046E-04 0.000E+00

     total cpu time spent up to now is      504.9 secs

     total energy              =    -187.73276883 Ry
     estimated scf accuracy    <       0.00009732 Ry

     iteration #  4     ecut=    60.00 Ry     beta= 0.70
     Davidson diagonalization with overlap

---- Real-time Memory Report at c_bands before calling an iterative solver
          1591 MiB given to the printing process from OS
             0 MiB allocation reported by mallinfo(arena+hblkhd)
           833 MiB available memory on the node where the printing process lives
------------------
     ethr =  3.74E-07,  avg # of iterations =  1.0

     negative rho (up, down):  2.044E-04 0.000E+00

     total cpu time spent up to now is      510.0 secs

     total energy              =    -187.73276428 Ry
     estimated scf accuracy    <       0.00004305 Ry

     iteration #  5     ecut=    60.00 Ry     beta= 0.70
     Davidson diagonalization with overlap

---- Real-time Memory Report at c_bands before calling an iterative solver
          1591 MiB given to the printing process from OS
             0 MiB allocation reported by mallinfo(arena+hblkhd)
           839 MiB available memory on the node where the printing process lives
------------------
     ethr =  1.66E-07,  avg # of iterations =  1.9

     negative rho (up, down):  2.044E-04 0.000E+00

     total cpu time spent up to now is      515.4 secs

     total energy              =    -187.73276595 Ry
     estimated scf accuracy    <       0.00000763 Ry

     iteration #  6     ecut=    60.00 Ry     beta= 0.70
     Davidson diagonalization with overlap

---- Real-time Memory Report at c_bands before calling an iterative solver
          1591 MiB given to the printing process from OS
             0 MiB allocation reported by mallinfo(arena+hblkhd)
           829 MiB available memory on the node where the printing process lives
------------------
     ethr =  2.93E-08,  avg # of iterations =  2.4

     negative rho (up, down):  2.045E-04 0.000E+00

     total cpu time spent up to now is      520.9 secs

     total energy              =    -187.73276682 Ry
     estimated scf accuracy    <       0.00000143 Ry

     iteration #  7     ecut=    60.00 Ry     beta= 0.70
     Davidson diagonalization with overlap

---- Real-time Memory Report at c_bands before calling an iterative solver
          1591 MiB given to the printing process from OS
             0 MiB allocation reported by mallinfo(arena+hblkhd)
           828 MiB available memory on the node where the printing process lives
------------------
     ethr =  5.50E-09,  avg # of iterations =  2.0

     negative rho (up, down):  2.045E-04 0.000E+00

     total cpu time spent up to now is      526.3 secs

     total energy              =    -187.73276681 Ry
     estimated scf accuracy    <       0.00000074 Ry

     iteration #  8     ecut=    60.00 Ry     beta= 0.70
     Davidson diagonalization with overlap

---- Real-time Memory Report at c_bands before calling an iterative solver
          1591 MiB given to the printing process from OS
             0 MiB allocation reported by mallinfo(arena+hblkhd)
           819 MiB available memory on the node where the printing process lives
------------------
     ethr =  2.85E-09,  avg # of iterations =  2.0

     negative rho (up, down):  2.045E-04 0.000E+00

     total cpu time spent up to now is      532.1 secs

     total energy              =    -187.73276686 Ry
     estimated scf accuracy    <       0.00000007 Ry

     iteration #  9     ecut=    60.00 Ry     beta= 0.70
     Davidson diagonalization with overlap

---- Real-time Memory Report at c_bands before calling an iterative solver
          1591 MiB given to the printing process from OS
             0 MiB allocation reported by mallinfo(arena+hblkhd)
           817 MiB available memory on the node where the printing process lives
------------------
     ethr =  2.65E-10,  avg # of iterations =  3.9

     negative rho (up, down):  2.045E-04 0.000E+00

     total cpu time spent up to now is      538.2 secs

     total energy              =    -187.73276690 Ry
     estimated scf accuracy    <       0.00000003 Ry

     iteration # 10     ecut=    60.00 Ry     beta= 0.70
     Davidson diagonalization with overlap

---- Real-time Memory Report at c_bands before calling an iterative solver
          1591 MiB given to the printing process from OS
             0 MiB allocation reported by mallinfo(arena+hblkhd)
           817 MiB available memory on the node where the printing process lives
------------------
     ethr =  1.31E-10,  avg # of iterations =  1.0

     negative rho (up, down):  2.045E-04 0.000E+00

     total cpu time spent up to now is      543.4 secs

     total energy              =    -187.73276689 Ry
     estimated scf accuracy    <       0.00000002 Ry

     iteration # 11     ecut=    60.00 Ry     beta= 0.70
     Davidson diagonalization with overlap

---- Real-time Memory Report at c_bands before calling an iterative solver
          1591 MiB given to the printing process from OS
             0 MiB allocation reported by mallinfo(arena+hblkhd)
           820 MiB available memory on the node where the printing process lives
------------------
     ethr =  7.33E-11,  avg # of iterations =  2.0

     negative rho (up, down):  2.045E-04 0.000E+00

     total cpu time spent up to now is      548.9 secs

     End of self-consistent calculation

          k = 0.0000 0.0000 0.0000 (  8091 PWs)   bands (ev):

   -61.1194 -35.2496 -35.0479 -35.0479 -14.2970 -12.9905  -5.8148  -2.8347
    -2.8347  -1.9813  -1.7319  -1.7319  -0.2122   2.5304   2.5304   2.7821
     2.7821

     occupation numbers 
     1.0000   1.0000   1.0000   1.0000   1.0000   1.0000   1.0000   1.0000
     1.0000   1.0000   1.0000   1.0000   1.0000   0.0000   0.0000   0.0000
     0.0000

          k =-0.0000 0.1282 0.0000 (  8095 PWs)   bands (ev):

   -61.1152 -35.2410 -35.0919 -35.0579 -14.1179 -12.9171  -5.6140  -3.2182
    -2.6901  -2.6483  -2.0061  -1.3133  -0.3169   2.3450   2.3513   2.5869
     2.8318

     occupation numbers 
     1.0000   1.0000   1.0000   1.0000   1.0000   1.0000   1.0000   1.0000
     1.0000   1.0000   1.0000   1.0000   1.0000   0.0000   0.0000   0.0000
     0.0000

          k =-0.0000 0.2565 0.0000 (  8071 PWs)   bands (ev):

   -61.1043 -35.2192 -35.2018 -35.0832 -13.6315 -12.7185  -5.2268  -3.9163
    -3.5605  -2.5649  -2.1611  -1.4361  -0.7840   1.9562   2.2104   2.5281
     3.4129

     occupation numbers 
     1.0000   1.0000   1.0000   1.0000   1.0000   1.0000   1.0000   1.0000
     1.0000   1.0000   1.0000   1.0000   1.0000   0.0000   0.0000   0.0000
     0.0000

          k =-0.0000 0.3847 0.0000 (  8069 PWs)   bands (ev):

   -61.0918 -35.3245 -35.1942 -35.1117 -12.9988 -12.4654  -5.4405  -4.3790
    -4.1113  -3.0653  -1.8314  -1.5977  -1.1810   1.9836   2.1158   3.1603
     3.8569

     occupation numbers 
     1.0000   1.0000   1.0000   1.0000   1.0000   1.0000   1.0000   1.0000
     1.0000   1.0000   1.0000   1.0000   1.0000   0.0000   0.0000   0.0000
     0.0000

          k =-0.0000 0.5129 0.0000 (  8038 PWs)   bands (ev):

   -61.0837 -35.4033 -35.1779 -35.1303 -12.5149 -12.2797  -5.8962  -4.9080
    -4.2379  -3.3444  -2.0527  -1.2510  -0.9299   1.9921   2.4497   3.5866
     4.0562

     occupation numbers 
     1.0000   1.0000   1.0000   1.0000   1.0000   1.0000   1.0000   1.0000
     1.0000   1.0000   1.0000   1.0000   1.0000   0.0000   0.0000   0.0000
     0.0000

          k = 0.1111 0.1924 0.0000 (  8097 PWs)   bands (ev):

   -61.1076 -35.2258 -35.1649 -35.0795 -13.7845 -12.7803  -5.2975  -3.7394
    -3.2176  -2.6674  -2.3479  -1.1454  -0.6127   1.9627   2.2391   2.3061
     3.3606

     occupation numbers 
     1.0000   1.0000   1.0000   1.0000   1.0000   1.0000   1.0000   1.0000
     1.0000   1.0000   1.0000   1.0000   1.0000   0.0000   0.0000   0.0000
     0.0000

          k = 0.1111 0.3206 0.0000 (  8086 PWs)   bands (ev):

   -61.0959 -35.2721 -35.2024 -35.1154 -13.2192 -12.5493  -5.1800  -4.0522
    -3.9976  -3.2622  -2.0891  -1.3842  -1.0307   1.7669   2.2230   2.5855
     3.9081

     occupation numbers 
     1.0000   1.0000   1.0000   1.0000   1.0000   1.0000   1.0000   1.0000
     1.0000   1.0000   1.0000   1.0000   1.0000   0.0000   0.0000   0.0000
     0.0000

          k = 0.1111 0.4488 0.0000 (  8045 PWs)   bands (ev):

   -61.0856 -35.3644 -35.1817 -35.1473 -12.6429 -12.3181  -5.5786  -4.8051
    -4.0791  -3.3914  -2.0557  -1.8424  -0.8811   1.9807   2.3556   3.2014
     4.0704

     occupation numbers 
     1.0000   1.0000   1.0000   1.0000   1.0000   1.0000   1.0000   1.0000
     1.0000   1.0000   1.0000   1.0000   1.0000   0.0000   0.0000   0.0000
     0.0000

          k = 0.1111 0.5771 0.0000 (  8030 PWs)   bands (ev):

   -61.0816 -35.4005 -35.1736 -35.1599 -12.3851 -12.2173  -5.7899  -5.1239
    -4.2149  -3.3841  -2.0629  -1.9716  -0.6325   2.0053   2.6234   3.5992
     3.9166

     occupation numbers 
     1.0000   1.0000   1.0000   1.0000   1.0000   1.0000   1.0000   1.0000
     1.0000   1.0000   1.0000   1.0000   1.0000   0.0000   0.0000   0.0000
     0.0000

          k = 0.2221 0.3847 0.0000 (  8055 PWs)   bands (ev):

   -61.0864 -35.3314 -35.1833 -35.1722 -12.6959 -12.3294  -5.3099  -4.7551
    -3.8589  -3.5158  -2.7341  -1.6131  -0.9134   1.9313   2.3628   2.7759
     4.2547

     occupation numbers 
     1.0000   1.0000   1.0000   1.0000   1.0000   1.0000   1.0000   1.0000
     1.0000   1.0000   1.0000   1.0000   1.0000   0.0000   0.0000   0.0000
     0.0000

          k = 0.2221 0.5129 0.0000 (  8041 PWs)   bands (ev):

   -61.0802 -35.3599 -35.2191 -35.1708 -12.3127 -12.1645  -5.3527  -5.3201
    -4.0144  -3.3133  -3.1535  -2.0784  -0.5351   1.8001   2.8867   2.9978
     4.3811

     occupation numbers 
     1.0000   1.0000   1.0000   1.0000   1.0000   1.0000   1.0000   1.0000
     1.0000   1.0000   1.0000   1.0000   1.0000   0.0000   0.0000   0.0000
     0.0000

          k = 0.3332 0.5771 0.0000 (  7992 PWs)   bands (ev):

   -61.0780 -35.3241 -35.2817 -35.1664 -12.1787 -12.0959  -5.6037  -4.7893
    -4.2725  -3.7689  -3.0798  -2.3610  -0.2412   1.4296   2.8475   3.3079
     4.6227

     occupation numbers 
     1.0000   1.0000   1.0000   1.0000   1.0000   1.0000   1.0000   1.0000
     1.0000   1.0000   1.0000   1.0000   1.0000   0.0000   0.0000   0.0000
     0.0000

     the Fermi energy is     0.6346 ev

!    total energy              =    -187.73276689 Ry
     estimated scf accuracy    <          1.6E-10 Ry
     smearing contrib. (-TS)   =      -0.00000000 Ry
     internal energy E=F+TS    =    -187.73276689 Ry

     The total energy is F=E-TS. E is the sum of the following terms:
     one-electron contribution =    -898.24272904 Ry
     hartree contribution      =     450.22597013 Ry
     xc contribution           =     -36.26895282 Ry
     ewald contribution        =     296.55294485 Ry

     convergence has been achieved in  11 iterations

     negative rho (up, down):  2.045E-04 0.000E+00

     Forces acting on atoms (cartesian axes, Ry/au):

     atom    1 type  1   force =    -0.00000000    0.00000000    0.00000000
     atom    2 type  2   force =    -0.00000000    0.00000000    0.00011126
     atom    3 type  2   force =     0.00000000    0.00000000   -0.00011126
     The non-local contrib.  to forces
     atom    1 type  1   force =     0.00000000    0.00000000    0.00000000
     atom    2 type  2   force =     0.00000000   -0.00000000   -0.27890174
     atom    3 type  2   force =     0.00000000   -0.00000000    0.27890174
     The ionic contribution  to forces
     atom    1 type  1   force =    -0.00000000    0.00000005    0.00000000
     atom    2 type  2   force =     0.00000004   -0.00000002   34.31571407
     atom    3 type  2   force =    -0.00000004   -0.00000002  -34.31571407
     The local contribution  to forces
     atom    1 type  1   force =    -0.00000000    0.00000000   -0.00000000
     atom    2 type  2   force =     0.00000012   -0.00000007  -34.05103349
     atom    3 type  2   force =    -0.00000012   -0.00000007   34.05103349
     The core correction contribution to forces
     atom    1 type  1   force =    -0.00000000   -0.00000000   -0.00000000
     atom    2 type  2   force =    -0.00000001    0.00000001    0.01430731
     atom    3 type  2   force =     0.00000001    0.00000001   -0.01430731
     The Hubbard contrib.    to forces
     atom    1 type  1   force =     0.00000000    0.00000000    0.00000000
     atom    2 type  2   force =     0.00000000    0.00000000    0.00000000
     atom    3 type  2   force =     0.00000000    0.00000000    0.00000000
     The SCF correction term to forces
     atom    1 type  1   force =     0.00000000    0.00000000    0.00000000
     atom    2 type  2   force =     0.00000000   -0.00000000    0.00002511
     atom    3 type  2   force =    -0.00000000   -0.00000000   -0.00002511

     Total force =     0.000157     Total SCF correction =     0.000036
     SCF correction compared to forces is large: reduce conv_thr to get better values


     Computing stress (Cartesian axis) and pressure


     negative rho (up, down):  2.045E-04 0.000E+00
          total   stress  (Ry/bohr**3)                   (kbar)     P=       -0.42
  -0.00000470  -0.00000000   0.00000000           -0.69       -0.00        0.00
  -0.00000000  -0.00000470  -0.00000000           -0.00       -0.69       -0.00
  -0.00000000   0.00000000   0.00000082           -0.00        0.00        0.12

     kinetic stress (kbar)   4232.19      0.00      0.00
                                0.00   4232.19      0.00
                               -0.00     -0.00   4285.23

     local   stress (kbar)-126590.35      0.00     -0.00
                                0.00-126590.35     -0.00
                               -0.00     -0.00 124213.63

     nonloc. stress (kbar)   4459.18     -0.00      0.00
                               -0.00   4459.18      0.00
                                0.00      0.00   4472.17

     hartree stress (kbar)  62029.65     -0.00     -0.00
                               -0.00  62029.65      0.00
                               -0.00      0.00 -59642.77

     exc-cor stress (kbar)    318.41     -0.00      0.00
                               -0.00    318.41     -0.00
                                0.00     -0.00    317.54

     corecor stress (kbar)  -1657.68      0.00     -0.00
                                0.00  -1657.68     -0.00
                               -0.00     -0.00  -1659.45

     ewald   stress (kbar)  57207.92     -0.00      0.00
                               -0.00  57207.92      0.00
                                0.00      0.00 -71986.23

     hubbard stress (kbar)      0.00      0.00      0.00
                                0.00      0.00      0.00
                                0.00      0.00      0.00

     DFT-D   stress (kbar)      0.00      0.00      0.00
                                0.00      0.00      0.00
                                0.00      0.00      0.00

     XDM     stress (kbar)      0.00      0.00      0.00
                                0.00      0.00      0.00
                                0.00      0.00      0.00

     dft-nl  stress (kbar)      0.00      0.00      0.00
                                0.00      0.00      0.00
                                0.00      0.00      0.00

     TS-vdW  stress (kbar)      0.00      0.00      0.00
                                0.00      0.00      0.00
                                0.00      0.00      0.00

     MDB     stress (kbar)      0.00      0.00      0.00
                                0.00      0.00      0.00
                                0.00      0.00      0.00

     3D-RISM stress (kbar)      0.00      0.00      0.00
                                0.00      0.00      0.00
                                0.00      0.00      0.00

     Energy error            =      3.3E-06 Ry
     Gradient error          =      1.1E-04 Ry/Bohr
     Cell gradient error     =      6.9E-01 kbar

     number of scf cycles    =   4
     number of bfgs steps    =   3

     enthalpy           old  =    -187.7327635684 Ry
     enthalpy           new  =    -187.7327668942 Ry

     CASE: enthalpy          _new < enthalpy          _old

     new trust radius        =       0.0010797206 bohr
     new conv_thr            =            1.0E-10 Ry

     new unit-cell volume =   1027.81433 a.u.^3 (   152.30637 Ang^3 )
     density =      1.74520 g/cm^3

CELL_PARAMETERS (angstrom)
   3.185200726   0.000000000   0.000000000
  -1.592600363   2.758464744   0.000000000
   0.000000000   0.000000000  17.334599950

ATOMIC_POSITIONS (crystal)
Mo            0.0000000000        0.0000000000        0.5000000000
S             0.3333333300        0.6666666700        0.5900976078
S             0.3333333400        0.6666666700        0.4099023922



     Writing config-only to output data dir ./tmp/pwscf.save/
     NEW-OLD atomic charge density approx. for the potential

     negative rho (up, down):  2.029E-04 0.000E+00
     extrapolated charge   25.99124, renormalised to   26.00000

     total cpu time spent up to now is      632.0 secs

     Self-consistent Calculation

     iteration #  1     ecut=    60.00 Ry     beta= 0.70
     Davidson diagonalization with overlap

---- Real-time Memory Report at c_bands before calling an iterative solver
          1591 MiB given to the printing process from OS
             0 MiB allocation reported by mallinfo(arena+hblkhd)
          1203 MiB available memory on the node where the printing process lives
------------------
     ethr =  1.00E-06,  avg # of iterations =  2.1

     negative rho (up, down):  2.061E-04 0.000E+00

     total cpu time spent up to now is      638.2 secs

     total energy              =    -187.73223878 Ry
     estimated scf accuracy    <       0.00050657 Ry

     iteration #  2     ecut=    60.00 Ry     beta= 0.70
     Davidson diagonalization with overlap

---- Real-time Memory Report at c_bands before calling an iterative solver
          1591 MiB given to the printing process from OS
             0 MiB allocation reported by mallinfo(arena+hblkhd)
          1171 MiB available memory on the node where the printing process lives
------------------
     ethr =  1.95E-06,  avg # of iterations =  5.0

     negative rho (up, down):  2.051E-04 0.000E+00

     total cpu time spent up to now is      645.0 secs

     total energy              =    -187.73195665 Ry
     estimated scf accuracy    <       0.01078333 Ry

     iteration #  3     ecut=    60.00 Ry     beta= 0.70
     Davidson diagonalization with overlap

---- Real-time Memory Report at c_bands before calling an iterative solver
          1591 MiB given to the printing process from OS
             0 MiB allocation reported by mallinfo(arena+hblkhd)
          1174 MiB available memory on the node where the printing process lives
------------------
     ethr =  1.95E-06,  avg # of iterations =  4.0

     negative rho (up, down):  2.049E-04 0.000E+00

     total cpu time spent up to now is      651.3 secs

     total energy              =    -187.73277683 Ry
     estimated scf accuracy    <       0.00041067 Ry

     iteration #  4     ecut=    60.00 Ry     beta= 0.70
     Davidson diagonalization with overlap

---- Real-time Memory Report at c_bands before calling an iterative solver
          1591 MiB given to the printing process from OS
             0 MiB allocation reported by mallinfo(arena+hblkhd)
          1171 MiB available memory on the node where the printing process lives
------------------
     ethr =  1.58E-06,  avg # of iterations =  1.0

     negative rho (up, down):  2.046E-04 0.000E+00

     total cpu time spent up to now is      656.4 secs

     total energy              =    -187.73276452 Ry
     estimated scf accuracy    <       0.00018083 Ry

     iteration #  5     ecut=    60.00 Ry     beta= 0.70
     Davidson diagonalization with overlap

---- Real-time Memory Report at c_bands before calling an iterative solver
          1591 MiB given to the printing process from OS
             0 MiB allocation reported by mallinfo(arena+hblkhd)
          1164 MiB available memory on the node where the printing process lives
------------------
     ethr =  6.95E-07,  avg # of iterations =  1.1

     negative rho (up, down):  2.045E-04 0.000E+00

     total cpu time spent up to now is      661.5 secs

     total energy              =    -187.73276762 Ry
     estimated scf accuracy    <       0.00005633 Ry

     iteration #  6     ecut=    60.00 Ry     beta= 0.70
     Davidson diagonalization with overlap

---- Real-time Memory Report at c_bands before calling an iterative solver
          1591 MiB given to the printing process from OS
             0 MiB allocation reported by mallinfo(arena+hblkhd)
          1169 MiB available memory on the node where the printing process lives
------------------
     ethr =  2.17E-07,  avg # of iterations =  1.9

     negative rho (up, down):  2.046E-04 0.000E+00

     total cpu time spent up to now is      666.9 secs

     total energy              =    -187.73276979 Ry
     estimated scf accuracy    <       0.00002728 Ry

     iteration #  7     ecut=    60.00 Ry     beta= 0.70
     Davidson diagonalization with overlap

---- Real-time Memory Report at c_bands before calling an iterative solver
          1591 MiB given to the printing process from OS
             0 MiB allocation reported by mallinfo(arena+hblkhd)
          1171 MiB available memory on the node where the printing process lives
------------------
     ethr =  1.05E-07,  avg # of iterations =  1.0

     negative rho (up, down):  2.046E-04 0.000E+00

     total cpu time spent up to now is      672.1 secs

     total energy              =    -187.73277013 Ry
     estimated scf accuracy    <       0.00002041 Ry

     iteration #  8     ecut=    60.00 Ry     beta= 0.70
     Davidson diagonalization with overlap

---- Real-time Memory Report at c_bands before calling an iterative solver
          1591 MiB given to the printing process from OS
             0 MiB allocation reported by mallinfo(arena+hblkhd)
          1140 MiB available memory on the node where the printing process lives
------------------
     ethr =  7.85E-08,  avg # of iterations =  1.0

     negative rho (up, down):  2.047E-04 0.000E+00

     total cpu time spent up to now is      677.3 secs

     total energy              =    -187.73276997 Ry
     estimated scf accuracy    <       0.00001723 Ry

     iteration #  9     ecut=    60.00 Ry     beta= 0.70
     Davidson diagonalization with overlap

---- Real-time Memory Report at c_bands before calling an iterative solver
          1591 MiB given to the printing process from OS
             0 MiB allocation reported by mallinfo(arena+hblkhd)
          1132 MiB available memory on the node where the printing process lives
------------------
     ethr =  6.63E-08,  avg # of iterations =  1.0

     negative rho (up, down):  2.046E-04 0.000E+00

     total cpu time spent up to now is      682.5 secs

     total energy              =    -187.73276728 Ry
     estimated scf accuracy    <       0.00001333 Ry

     iteration # 10     ecut=    60.00 Ry     beta= 0.70
     Davidson diagonalization with overlap

---- Real-time Memory Report at c_bands before calling an iterative solver
          1591 MiB given to the printing process from OS
             0 MiB allocation reported by mallinfo(arena+hblkhd)
          1125 MiB available memory on the node where the printing process lives
------------------
     ethr =  5.13E-08,  avg # of iterations =  1.8

     negative rho (up, down):  2.045E-04 0.000E+00

     total cpu time spent up to now is      687.7 secs

     total energy              =    -187.73276833 Ry
     estimated scf accuracy    <       0.00000068 Ry

     iteration # 11     ecut=    60.00 Ry     beta= 0.70
     Davidson diagonalization with overlap

---- Real-time Memory Report at c_bands before calling an iterative solver
          1591 MiB given to the printing process from OS
             0 MiB allocation reported by mallinfo(arena+hblkhd)
          1123 MiB available memory on the node where the printing process lives
------------------
     ethr =  2.60E-09,  avg # of iterations =  3.6

     negative rho (up, down):  2.046E-04 0.000E+00

     total cpu time spent up to now is      693.5 secs

     total energy              =    -187.73276850 Ry
     estimated scf accuracy    <       0.00000008 Ry

     iteration # 12     ecut=    60.00 Ry     beta= 0.70
     Davidson diagonalization with overlap

---- Real-time Memory Report at c_bands before calling an iterative solver
          1591 MiB given to the printing process from OS
             0 MiB allocation reported by mallinfo(arena+hblkhd)
          1015 MiB available memory on the node where the printing process lives
------------------
     ethr =  3.17E-10,  avg # of iterations =  2.0

     negative rho (up, down):  2.047E-04 0.000E+00

     total cpu time spent up to now is      699.3 secs

     total energy              =    -187.73276856 Ry
     estimated scf accuracy    <       0.00000026 Ry

     iteration # 13     ecut=    60.00 Ry     beta= 0.70
     Davidson diagonalization with overlap

---- Real-time Memory Report at c_bands before calling an iterative solver
          1591 MiB given to the printing process from OS
             0 MiB allocation reported by mallinfo(arena+hblkhd)
           987 MiB available memory on the node where the printing process lives
------------------
     ethr =  3.17E-10,  avg # of iterations =  2.0

     negative rho (up, down):  2.044E-04 0.000E+00

     total cpu time spent up to now is      704.7 secs

     total energy              =    -187.73276841 Ry
     estimated scf accuracy    <       0.00000049 Ry

     iteration # 14     ecut=    60.00 Ry     beta= 0.70
     Davidson diagonalization with overlap

---- Real-time Memory Report at c_bands before calling an iterative solver
          1591 MiB given to the printing process from OS
             0 MiB allocation reported by mallinfo(arena+hblkhd)
           985 MiB available memory on the node where the printing process lives
------------------
     ethr =  3.17E-10,  avg # of iterations =  2.3

     negative rho (up, down):  2.040E-04 0.000E+00

     total cpu time spent up to now is      710.3 secs

     total energy              =    -187.73276848 Ry
     estimated scf accuracy    <       0.00000002 Ry

     iteration # 15     ecut=    60.00 Ry     beta= 0.70
     Davidson diagonalization with overlap

---- Real-time Memory Report at c_bands before calling an iterative solver
          1591 MiB given to the printing process from OS
             0 MiB allocation reported by mallinfo(arena+hblkhd)
           996 MiB available memory on the node where the printing process lives
------------------
     ethr =  8.72E-11,  avg # of iterations =  4.2

     negative rho (up, down):  2.040E-04 0.000E+00

     total cpu time spent up to now is      717.0 secs

     total energy              =    -187.73276876 Ry
     estimated scf accuracy    <       0.00000149 Ry

     iteration # 16     ecut=    60.00 Ry     beta= 0.70
     Davidson diagonalization with overlap

---- Real-time Memory Report at c_bands before calling an iterative solver
          1591 MiB given to the printing process from OS
             0 MiB allocation reported by mallinfo(arena+hblkhd)
          1012 MiB available memory on the node where the printing process lives
------------------
     ethr =  8.72E-11,  avg # of iterations =  1.0

     negative rho (up, down):  2.053E-04 0.000E+00

     total cpu time spent up to now is      722.1 secs

     total energy              =    -187.73276791 Ry
     estimated scf accuracy    <       0.00000160 Ry

     iteration # 17     ecut=    60.00 Ry     beta= 0.70
     Davidson diagonalization with overlap

---- Real-time Memory Report at c_bands before calling an iterative solver
          1591 MiB given to the printing process from OS
             0 MiB allocation reported by mallinfo(arena+hblkhd)
          1011 MiB available memory on the node where the printing process lives
------------------
     ethr =  8.72E-11,  avg # of iterations =  5.0

     negative rho (up, down):  2.048E-04 0.000E+00

     total cpu time spent up to now is      729.5 secs

     total energy              =    -187.73276838 Ry
     estimated scf accuracy    <       0.00000160 Ry

     iteration # 18     ecut=    60.00 Ry     beta= 0.70
     Davidson diagonalization with overlap

---- Real-time Memory Report at c_bands before calling an iterative solver
          1591 MiB given to the printing process from OS
             0 MiB allocation reported by mallinfo(arena+hblkhd)
          1001 MiB available memory on the node where the printing process lives
------------------
     ethr =  8.72E-11,  avg # of iterations =  4.0

     negative rho (up, down):  2.045E-04 0.000E+00

     total cpu time spent up to now is      736.0 secs

     total energy              =    -187.73276843 Ry
     estimated scf accuracy    <       0.00000016 Ry

     iteration # 19     ecut=    60.00 Ry     beta= 0.70
     Davidson diagonalization with overlap

---- Real-time Memory Report at c_bands before calling an iterative solver
          1591 MiB given to the printing process from OS
             0 MiB allocation reported by mallinfo(arena+hblkhd)
           997 MiB available memory on the node where the printing process lives
------------------
     ethr =  8.72E-11,  avg # of iterations =  3.0

     negative rho (up, down):  2.045E-04 0.000E+00

     total cpu time spent up to now is      741.9 secs

     End of self-consistent calculation

          k = 0.0000 0.0000 0.0000 (  8091 PWs)   bands (ev):

   -61.1167 -35.2471 -35.0447 -35.0447 -14.2950 -12.9898  -5.8129  -2.8295
    -2.8295  -1.9816  -1.7270  -1.7270  -0.2127   2.5339   2.5339   2.7844
     2.7844

     occupation numbers 
     1.0000   1.0000   1.0000   1.0000   1.0000   1.0000   1.0000   1.0000
     1.0000   1.0000   1.0000   1.0000   1.0000   0.0000   0.0000   0.0000
     0.0000

          k =-0.0000 0.1283 0.0000 (  8095 PWs)   bands (ev):

   -61.1124 -35.2385 -35.0888 -35.0548 -14.1158 -12.9162  -5.6119  -3.2134
    -2.6881  -2.6430  -2.0013  -1.3112  -0.3170   2.3483   2.3529   2.5892
     2.8352

     occupation numbers 
     1.0000   1.0000   1.0000   1.0000   1.0000   1.0000   1.0000   1.0000
     1.0000   1.0000   1.0000   1.0000   1.0000   0.0000   0.0000   0.0000
     0.0000

          k =-0.0000 0.2565 0.0000 (  8071 PWs)   bands (ev):

   -61.1015 -35.2166 -35.1988 -35.0801 -13.6290 -12.7173  -5.2241  -3.9125
    -3.5585  -2.5605  -2.1557  -1.4351  -0.7831   1.9570   2.2129   2.5311
     3.4158

     occupation numbers 
     1.0000   1.0000   1.0000   1.0000   1.0000   1.0000   1.0000   1.0000
     1.0000   1.0000   1.0000   1.0000   1.0000   0.0000   0.0000   0.0000
     0.0000

          k =-0.0000 0.3848 0.0000 (  8069 PWs)   bands (ev):

   -61.0890 -35.3217 -35.1917 -35.1086 -12.9958 -12.4636  -5.4377  -4.3776
    -4.1086  -3.0611  -1.8310  -1.5924  -1.1794   1.9869   2.1173   3.1628
     3.8592

     occupation numbers 
     1.0000   1.0000   1.0000   1.0000   1.0000   1.0000   1.0000   1.0000
     1.0000   1.0000   1.0000   1.0000   1.0000   0.0000   0.0000   0.0000
     0.0000

          k =-0.0000 0.5130 0.0000 (  8038 PWs)   bands (ev):

   -61.0809 -35.4007 -35.1753 -35.1272 -12.5113 -12.2775  -5.8944  -4.9071
    -4.2355  -3.3403  -2.0525  -1.2462  -0.9279   1.9965   2.4533   3.5888
     4.0581

     occupation numbers 
     1.0000   1.0000   1.0000   1.0000   1.0000   1.0000   1.0000   1.0000
     1.0000   1.0000   1.0000   1.0000   1.0000   0.0000   0.0000   0.0000
     0.0000

          k = 0.1111 0.1924 0.0000 (  8097 PWs)   bands (ev):

   -61.1048 -35.2232 -35.1619 -35.0763 -13.7821 -12.7792  -5.2951  -3.7352
    -3.2155  -2.6634  -2.3426  -1.1435  -0.6119   1.9636   2.2422   2.3084
     3.3636

     occupation numbers 
     1.0000   1.0000   1.0000   1.0000   1.0000   1.0000   1.0000   1.0000
     1.0000   1.0000   1.0000   1.0000   1.0000   0.0000   0.0000   0.0000
     0.0000

          k = 0.1111 0.3206 0.0000 (  8086 PWs)   bands (ev):

   -61.0931 -35.2692 -35.1998 -35.1123 -13.2164 -12.5478  -5.1769  -4.0492
    -3.9953  -3.2594  -2.0847  -1.3829  -1.0285   1.7681   2.2258   2.5883
     3.9104

     occupation numbers 
     1.0000   1.0000   1.0000   1.0000   1.0000   1.0000   1.0000   1.0000
     1.0000   1.0000   1.0000   1.0000   1.0000   0.0000   0.0000   0.0000
     0.0000

          k = 0.1111 0.4489 0.0000 (  8045 PWs)   bands (ev):

   -61.0828 -35.3617 -35.1792 -35.1443 -12.6395 -12.3160  -5.5763  -4.8034
    -4.0766  -3.3886  -2.0523  -1.8417  -0.8780   1.9833   2.3596   3.2037
     4.0724

     occupation numbers 
     1.0000   1.0000   1.0000   1.0000   1.0000   1.0000   1.0000   1.0000
     1.0000   1.0000   1.0000   1.0000   1.0000   0.0000   0.0000   0.0000
     0.0000

          k = 0.1111 0.5772 0.0000 (  8030 PWs)   bands (ev):

   -61.0787 -35.3978 -35.1710 -35.1569 -12.3814 -12.2150  -5.7883  -5.1225
    -4.2124  -3.3811  -2.0626  -1.9684  -0.6293   2.0097   2.6274   3.6008
     3.9187

     occupation numbers 
     1.0000   1.0000   1.0000   1.0000   1.0000   1.0000   1.0000   1.0000
     1.0000   1.0000   1.0000   1.0000   1.0000   0.0000   0.0000   0.0000
     0.0000

          k = 0.2221 0.3848 0.0000 (  8055 PWs)   bands (ev):

   -61.0836 -35.3286 -35.1807 -35.1692 -12.6926 -12.3273  -5.3073  -4.7526
    -3.8561  -3.5143  -2.7314  -1.6120  -0.9101   1.9325   2.3676   2.7780
     4.2569

     occupation numbers 
     1.0000   1.0000   1.0000   1.0000   1.0000   1.0000   1.0000   1.0000
     1.0000   1.0000   1.0000   1.0000   1.0000   0.0000   0.0000   0.0000
     0.0000

          k = 0.2221 0.5130 0.0000 (  8041 PWs)   bands (ev):

   -61.0773 -35.3572 -35.2161 -35.1682 -12.3089 -12.1620  -5.3506  -5.3183
    -4.0118  -3.3118  -3.1508  -2.0778  -0.5318   1.8047   2.8900   2.9985
     4.3842

     occupation numbers 
     1.0000   1.0000   1.0000   1.0000   1.0000   1.0000   1.0000   1.0000
     1.0000   1.0000   1.0000   1.0000   1.0000   0.0000   0.0000   0.0000
     0.0000

          k = 0.3332 0.5772 0.0000 (  7992 PWs)   bands (ev):

   -61.0752 -35.3213 -35.2788 -35.1638 -12.1747 -12.0933  -5.6016  -4.7876
    -4.2704  -3.7659  -3.0785  -2.3605  -0.2381   1.4351   2.8476   3.3105
     4.6265

     occupation numbers 
     1.0000   1.0000   1.0000   1.0000   1.0000   1.0000   1.0000   1.0000
     1.0000   1.0000   1.0000   1.0000   1.0000   0.0000   0.0000   0.0000
     0.0000

     the Fermi energy is     0.6383 ev

!    total energy              =    -187.73276845 Ry
     estimated scf accuracy    <          6.5E-11 Ry
     smearing contrib. (-TS)   =      -0.00000000 Ry
     internal energy E=F+TS    =    -187.73276845 Ry

     The total energy is F=E-TS. E is the sum of the following terms:
     one-electron contribution =    -898.38827061 Ry
     hartree contribution      =     450.30116876 Ry
     xc contribution           =     -36.26897923 Ry
     ewald contribution        =     296.62331263 Ry

     convergence has been achieved in  19 iterations

     negative rho (up, down):  2.045E-04 0.000E+00

     Forces acting on atoms (cartesian axes, Ry/au):

     atom    1 type  1   force =    -0.00000000    0.00000000    0.00000000
     atom    2 type  2   force =     0.00000000    0.00000000   -0.00009667
     atom    3 type  2   force =    -0.00000000   -0.00000000    0.00009667
     The non-local contrib.  to forces
     atom    1 type  1   force =     0.00000000   -0.00000000    0.00000000
     atom    2 type  2   force =    -0.00000000    0.00000000   -0.27897580
     atom    3 type  2   force =     0.00000000   -0.00000000    0.27897580
     The ionic contribution  to forces
     atom    1 type  1   force =    -0.00000000    0.00000005    0.00000000
     atom    2 type  2   force =     0.00000004   -0.00000002   34.32748709
     atom    3 type  2   force =    -0.00000004   -0.00000002  -34.32748709
     The local contribution  to forces
     atom    1 type  1   force =    -0.00000000    0.00000000   -0.00000000
     atom    2 type  2   force =     0.00000012   -0.00000007  -34.06293671
     atom    3 type  2   force =    -0.00000012   -0.00000007   34.06293671
     The core correction contribution to forces
     atom    1 type  1   force =     0.00000000   -0.00000000   -0.00000000
     atom    2 type  2   force =    -0.00000001    0.00000001    0.01431190
     atom    3 type  2   force =     0.00000001    0.00000001   -0.01431190
     The Hubbard contrib.    to forces
     atom    1 type  1   force =     0.00000000    0.00000000    0.00000000
     atom    2 type  2   force =     0.00000000    0.00000000    0.00000000
     atom    3 type  2   force =     0.00000000    0.00000000    0.00000000
     The SCF correction term to forces
     atom    1 type  1   force =     0.00000000   -0.00000000    0.00000000
     atom    2 type  2   force =     0.00000000   -0.00000000    0.00001685
     atom    3 type  2   force =    -0.00000000   -0.00000000   -0.00001685

     Total force =     0.000137     Total SCF correction =     0.000024
     SCF correction compared to forces is large: reduce conv_thr to get better values


     Computing stress (Cartesian axis) and pressure


     negative rho (up, down):  2.045E-04 0.000E+00
          total   stress  (Ry/bohr**3)                   (kbar)     P=       -0.43
  -0.00000410   0.00000000   0.00000000           -0.60        0.00        0.00
  -0.00000000  -0.00000410   0.00000000           -0.00       -0.60        0.00
   0.00000000   0.00000000  -0.00000059            0.00        0.00       -0.09

     kinetic stress (kbar)   4233.78     -0.00      0.00
                               -0.00   4233.78     -0.00
                                0.00     -0.00   4286.33

     local   stress (kbar)-126655.42      0.00     -0.00
                                0.00-126655.42      0.00
                               -0.00      0.00 124279.50

     nonloc. stress (kbar)   4460.67      0.00     -0.00
                                0.00   4460.67      0.00
                               -0.00      0.00   4473.66

     hartree stress (kbar)  62061.93     -0.00      0.00
                               -0.00  62061.93      0.00
                                0.00      0.00 -59674.88

     exc-cor stress (kbar)    318.51     -0.00      0.00
                               -0.00    318.51     -0.00
                                0.00     -0.00    317.65

     corecor stress (kbar)  -1658.24      0.00     -0.00
                                0.00  -1658.24     -0.00
                               -0.00     -0.00  -1660.01

     ewald   stress (kbar)  57238.15     -0.00      0.00
                               -0.00  57238.15      0.00
                                0.00      0.00 -72022.33

     hubbard stress (kbar)      0.00      0.00      0.00
                                0.00      0.00      0.00
                                0.00      0.00      0.00

     DFT-D   stress (kbar)      0.00      0.00      0.00
                                0.00      0.00      0.00
                                0.00      0.00      0.00

     XDM     stress (kbar)      0.00      0.00      0.00
                                0.00      0.00      0.00
                                0.00      0.00      0.00

     dft-nl  stress (kbar)      0.00      0.00      0.00
                                0.00      0.00      0.00
                                0.00      0.00      0.00

     TS-vdW  stress (kbar)      0.00      0.00      0.00
                                0.00      0.00      0.00
                                0.00      0.00      0.00

     MDB     stress (kbar)      0.00      0.00      0.00
                                0.00      0.00      0.00
                                0.00      0.00      0.00

     3D-RISM stress (kbar)      0.00      0.00      0.00
                                0.00      0.00      0.00
                                0.00      0.00      0.00

     Energy error            =      1.6E-06 Ry
     Gradient error          =      9.7E-05 Ry/Bohr
     Cell gradient error     =      6.0E-01 kbar

     number of scf cycles    =   5
     number of bfgs steps    =   4

     enthalpy           old  =    -187.7327668942 Ry
     enthalpy           new  =    -187.7327684496 Ry

     CASE: enthalpy          _new < enthalpy          _old

     new trust radius        =       0.0011876926 bohr
     new conv_thr            =            1.0E-10 Ry

     new unit-cell volume =   1027.43360 a.u.^3 (   152.24995 Ang^3 )
     density =      1.74585 g/cm^3

CELL_PARAMETERS (angstrom)
   3.184610723   0.000000000   0.000000000
  -1.592305362   2.757953788   0.000000000
   0.000000000   0.000000000  17.334599950

ATOMIC_POSITIONS (crystal)
Mo            0.0000000000        0.0000000000        0.5000000000
S             0.3333333300        0.6666666700        0.5901144907
S             0.3333333400        0.6666666700        0.4098855093



     Writing config-only to output data dir ./tmp/pwscf.save/
     NEW-OLD atomic charge density approx. for the potential

     negative rho (up, down):  2.029E-04 0.000E+00
     extrapolated charge   25.99037, renormalised to   26.00000

     total cpu time spent up to now is      825.3 secs

     Self-consistent Calculation

     iteration #  1     ecut=    60.00 Ry     beta= 0.70
     Davidson diagonalization with overlap

---- Real-time Memory Report at c_bands before calling an iterative solver
          1591 MiB given to the printing process from OS
             0 MiB allocation reported by mallinfo(arena+hblkhd)
          1197 MiB available memory on the node where the printing process lives
------------------
     ethr =  1.00E-06,  avg # of iterations =  2.3

     negative rho (up, down):  2.064E-04 0.000E+00

     total cpu time spent up to now is      831.6 secs

     total energy              =    -187.73212138 Ry
     estimated scf accuracy    <       0.00062203 Ry

     iteration #  2     ecut=    60.00 Ry     beta= 0.70
     Davidson diagonalization with overlap

---- Real-time Memory Report at c_bands before calling an iterative solver
          1591 MiB given to the printing process from OS
             0 MiB allocation reported by mallinfo(arena+hblkhd)
          1165 MiB available memory on the node where the printing process lives
------------------
     ethr =  2.39E-06,  avg # of iterations =  5.0

     negative rho (up, down):  2.053E-04 0.000E+00

     total cpu time spent up to now is      838.5 secs

     total energy              =    -187.73177110 Ry
     estimated scf accuracy    <       0.01322071 Ry

     iteration #  3     ecut=    60.00 Ry     beta= 0.70
     Davidson diagonalization with overlap

---- Real-time Memory Report at c_bands before calling an iterative solver
          1591 MiB given to the printing process from OS
             0 MiB allocation reported by mallinfo(arena+hblkhd)
          1166 MiB available memory on the node where the printing process lives
------------------
     ethr =  2.39E-06,  avg # of iterations =  4.0

     negative rho (up, down):  2.051E-04 0.000E+00

     total cpu time spent up to now is      844.6 secs

     total energy              =    -187.73277901 Ry
     estimated scf accuracy    <       0.00049953 Ry

     iteration #  4     ecut=    60.00 Ry     beta= 0.70
     Davidson diagonalization with overlap

---- Real-time Memory Report at c_bands before calling an iterative solver
          1591 MiB given to the printing process from OS
             0 MiB allocation reported by mallinfo(arena+hblkhd)
          1165 MiB available memory on the node where the printing process lives
------------------
     ethr =  1.92E-06,  avg # of iterations =  1.0

     negative rho (up, down):  2.047E-04 0.000E+00

     total cpu time spent up to now is      849.8 secs

     total energy              =    -187.73276510 Ry
     estimated scf accuracy    <       0.00021746 Ry

     iteration #  5     ecut=    60.00 Ry     beta= 0.70
     Davidson diagonalization with overlap

---- Real-time Memory Report at c_bands before calling an iterative solver
          1591 MiB given to the printing process from OS
             0 MiB allocation reported by mallinfo(arena+hblkhd)
          1161 MiB available memory on the node where the printing process lives
------------------
     ethr =  8.36E-07,  avg # of iterations =  1.1

     negative rho (up, down):  2.046E-04 0.000E+00

     total cpu time spent up to now is      855.0 secs

     total energy              =    -187.73276888 Ry
     estimated scf accuracy    <       0.00006989 Ry

     iteration #  6     ecut=    60.00 Ry     beta= 0.70
     Davidson diagonalization with overlap

---- Real-time Memory Report at c_bands before calling an iterative solver
          1591 MiB given to the printing process from OS
             0 MiB allocation reported by mallinfo(arena+hblkhd)
          1153 MiB available memory on the node where the printing process lives
------------------
     ethr =  2.69E-07,  avg # of iterations =  1.9

     negative rho (up, down):  2.047E-04 0.000E+00

     total cpu time spent up to now is      860.4 secs

     total energy              =    -187.73277169 Ry
     estimated scf accuracy    <       0.00003482 Ry

     iteration #  7     ecut=    60.00 Ry     beta= 0.70
     Davidson diagonalization with overlap

---- Real-time Memory Report at c_bands before calling an iterative solver
          1591 MiB given to the printing process from OS
             0 MiB allocation reported by mallinfo(arena+hblkhd)
          1135 MiB available memory on the node where the printing process lives
------------------
     ethr =  1.34E-07,  avg # of iterations =  1.0

     negative rho (up, down):  2.047E-04 0.000E+00

     total cpu time spent up to now is      865.5 secs

     total energy              =    -187.73277189 Ry
     estimated scf accuracy    <       0.00002747 Ry

     iteration #  8     ecut=    60.00 Ry     beta= 0.70
     Davidson diagonalization with overlap

---- Real-time Memory Report at c_bands before calling an iterative solver
          1591 MiB given to the printing process from OS
             0 MiB allocation reported by mallinfo(arena+hblkhd)
          1141 MiB available memory on the node where the printing process lives
------------------
     ethr =  1.06E-07,  avg # of iterations =  1.0

     negative rho (up, down):  2.047E-04 0.000E+00

     total cpu time spent up to now is      870.6 secs

     total energy              =    -187.73277043 Ry
     estimated scf accuracy    <       0.00002244 Ry

     iteration #  9     ecut=    60.00 Ry     beta= 0.70
     Davidson diagonalization with overlap

---- Real-time Memory Report at c_bands before calling an iterative solver
          1591 MiB given to the printing process from OS
             0 MiB allocation reported by mallinfo(arena+hblkhd)
          1138 MiB available memory on the node where the printing process lives
------------------
     ethr =  8.63E-08,  avg # of iterations =  1.0

     negative rho (up, down):  2.046E-04 0.000E+00

     total cpu time spent up to now is      875.7 secs

     total energy              =    -187.73276951 Ry
     estimated scf accuracy    <       0.00001095 Ry

     iteration # 10     ecut=    60.00 Ry     beta= 0.70
     Davidson diagonalization with overlap

---- Real-time Memory Report at c_bands before calling an iterative solver
          1591 MiB given to the printing process from OS
             0 MiB allocation reported by mallinfo(arena+hblkhd)
          1134 MiB available memory on the node where the printing process lives
------------------
     ethr =  4.21E-08,  avg # of iterations =  1.2

     negative rho (up, down):  2.045E-04 0.000E+00

     total cpu time spent up to now is      880.9 secs

     total energy              =    -187.73276908 Ry
     estimated scf accuracy    <       0.00000349 Ry

     iteration # 11     ecut=    60.00 Ry     beta= 0.70
     Davidson diagonalization with overlap

---- Real-time Memory Report at c_bands before calling an iterative solver
          1591 MiB given to the printing process from OS
             0 MiB allocation reported by mallinfo(arena+hblkhd)
          1134 MiB available memory on the node where the printing process lives
------------------
     ethr =  1.34E-08,  avg # of iterations =  2.3

     negative rho (up, down):  2.045E-04 0.000E+00

     total cpu time spent up to now is      886.3 secs

     total energy              =    -187.73276963 Ry
     estimated scf accuracy    <       0.00000005 Ry

     iteration # 12     ecut=    60.00 Ry     beta= 0.70
     Davidson diagonalization with overlap

---- Real-time Memory Report at c_bands before calling an iterative solver
          1591 MiB given to the printing process from OS
             0 MiB allocation reported by mallinfo(arena+hblkhd)
          1132 MiB available memory on the node where the printing process lives
------------------
     ethr =  1.81E-10,  avg # of iterations =  4.0

     negative rho (up, down):  2.045E-04 0.000E+00

     total cpu time spent up to now is      892.8 secs

     total energy              =    -187.73276967 Ry
     estimated scf accuracy    <       0.00000002 Ry

     iteration # 13     ecut=    60.00 Ry     beta= 0.70
     Davidson diagonalization with overlap

---- Real-time Memory Report at c_bands before calling an iterative solver
          1591 MiB given to the printing process from OS
             0 MiB allocation reported by mallinfo(arena+hblkhd)
          1131 MiB available memory on the node where the printing process lives
------------------
     ethr =  7.19E-11,  avg # of iterations =  1.9

     negative rho (up, down):  2.044E-04 0.000E+00

     total cpu time spent up to now is      898.1 secs

     total energy              =    -187.73276971 Ry
     estimated scf accuracy    <       0.00000001 Ry

     iteration # 14     ecut=    60.00 Ry     beta= 0.70
     Davidson diagonalization with overlap

---- Real-time Memory Report at c_bands before calling an iterative solver
          1591 MiB given to the printing process from OS
             0 MiB allocation reported by mallinfo(arena+hblkhd)
          1125 MiB available memory on the node where the printing process lives
------------------
     ethr =  4.70E-11,  avg # of iterations =  5.0

     negative rho (up, down):  2.045E-04 0.000E+00

     total cpu time spent up to now is      905.1 secs

     total energy              =    -187.73276969 Ry
     estimated scf accuracy    <       0.00000083 Ry

     iteration # 15     ecut=    60.00 Ry     beta= 0.70
     Davidson diagonalization with overlap

---- Real-time Memory Report at c_bands before calling an iterative solver
          1591 MiB given to the printing process from OS
             0 MiB allocation reported by mallinfo(arena+hblkhd)
          1121 MiB available memory on the node where the printing process lives
------------------
     ethr =  4.70E-11,  avg # of iterations =  3.0

     negative rho (up, down):  2.045E-04 0.000E+00

     total cpu time spent up to now is      911.3 secs

     total energy              =    -187.73276968 Ry
     estimated scf accuracy    <       0.00000023 Ry

     iteration # 16     ecut=    60.00 Ry     beta= 0.70
     Davidson diagonalization with overlap

---- Real-time Memory Report at c_bands before calling an iterative solver
          1591 MiB given to the printing process from OS
             0 MiB allocation reported by mallinfo(arena+hblkhd)
          1121 MiB available memory on the node where the printing process lives
------------------
     ethr =  4.70E-11,  avg # of iterations =  2.1

     negative rho (up, down):  2.045E-04 0.000E+00

     total cpu time spent up to now is      916.9 secs

     total energy              =    -187.73276966 Ry
     estimated scf accuracy    <       0.00000010 Ry

     iteration # 17     ecut=    60.00 Ry     beta= 0.70
     Davidson diagonalization with overlap

---- Real-time Memory Report at c_bands before calling an iterative solver
          1591 MiB given to the printing process from OS
             0 MiB allocation reported by mallinfo(arena+hblkhd)
          1122 MiB available memory on the node where the printing process lives
------------------
     ethr =  4.70E-11,  avg # of iterations =  2.8

     negative rho (up, down):  2.046E-04 0.000E+00

     total cpu time spent up to now is      922.6 secs

     total energy              =    -187.73276967 Ry
     estimated scf accuracy    <       0.00000001 Ry

     iteration # 18     ecut=    60.00 Ry     beta= 0.70
     Davidson diagonalization with overlap

---- Real-time Memory Report at c_bands before calling an iterative solver
          1591 MiB given to the printing process from OS
             0 MiB allocation reported by mallinfo(arena+hblkhd)
          1108 MiB available memory on the node where the printing process lives
------------------
     ethr =  4.64E-11,  avg # of iterations =  2.0

     negative rho (up, down):  2.046E-04 0.000E+00

     total cpu time spent up to now is      928.1 secs

     total energy              =    -187.73276967 Ry
     estimated scf accuracy    <          5.7E-10 Ry

     iteration # 19     ecut=    60.00 Ry     beta= 0.70
     Davidson diagonalization with overlap

---- Real-time Memory Report at c_bands before calling an iterative solver
          1591 MiB given to the printing process from OS
             0 MiB allocation reported by mallinfo(arena+hblkhd)
          1109 MiB available memory on the node where the printing process lives
------------------
     ethr =  2.20E-12,  avg # of iterations =  2.0

     negative rho (up, down):  2.046E-04 0.000E+00

     total cpu time spent up to now is      933.5 secs

     total energy              =    -187.73276967 Ry
     estimated scf accuracy    <          1.2E-09 Ry

     iteration # 20     ecut=    60.00 Ry     beta= 0.70
     Davidson diagonalization with overlap

---- Real-time Memory Report at c_bands before calling an iterative solver
          1591 MiB given to the printing process from OS
             0 MiB allocation reported by mallinfo(arena+hblkhd)
          1105 MiB available memory on the node where the printing process lives
------------------
     ethr =  2.20E-12,  avg # of iterations =  1.0

     negative rho (up, down):  2.046E-04 0.000E+00

     total cpu time spent up to now is      938.7 secs

     total energy              =    -187.73276967 Ry
     estimated scf accuracy    <          9.8E-10 Ry

     iteration # 21     ecut=    60.00 Ry     beta= 0.70
     Davidson diagonalization with overlap

---- Real-time Memory Report at c_bands before calling an iterative solver
          1591 MiB given to the printing process from OS
             0 MiB allocation reported by mallinfo(arena+hblkhd)
          1107 MiB available memory on the node where the printing process lives
------------------
     ethr =  2.20E-12,  avg # of iterations =  2.0

     negative rho (up, down):  2.046E-04 0.000E+00

     total cpu time spent up to now is      944.3 secs

     End of self-consistent calculation

          k = 0.0000 0.0000 0.0000 (  8091 PWs)   bands (ev):

   -61.1136 -35.2444 -35.0413 -35.0413 -14.2937 -12.9891  -5.8116  -2.8253
    -2.8253  -1.9814  -1.7226  -1.7226  -0.2126   2.5378   2.5378   2.7875
     2.7875

     occupation numbers 
     1.0000   1.0000   1.0000   1.0000   1.0000   1.0000   1.0000   1.0000
     1.0000   1.0000   1.0000   1.0000   1.0000   0.0000   0.0000   0.0000
     0.0000

          k =-0.0000 0.1283 0.0000 (  8095 PWs)   bands (ev):

   -61.1093 -35.2358 -35.0854 -35.0514 -14.1143 -12.9154  -5.6104  -3.2095
    -2.6863  -2.6386  -1.9972  -1.3089  -0.3164   2.3520   2.3554   2.5924
     2.8391

     occupation numbers 
     1.0000   1.0000   1.0000   1.0000   1.0000   1.0000   1.0000   1.0000
     1.0000   1.0000   1.0000   1.0000   1.0000   0.0000   0.0000   0.0000
     0.0000

          k =-0.0000 0.2566 0.0000 (  8071 PWs)   bands (ev):

   -61.0984 -35.2139 -35.1957 -35.0767 -13.6272 -12.7161  -5.2222  -3.9094
    -3.5569  -2.5567  -2.1511  -1.4337  -0.7818   1.9587   2.2161   2.5346
     3.4196

     occupation numbers 
     1.0000   1.0000   1.0000   1.0000   1.0000   1.0000   1.0000   1.0000
     1.0000   1.0000   1.0000   1.0000   1.0000   0.0000   0.0000   0.0000
     0.0000

          k =-0.0000 0.3848 0.0000 (  8069 PWs)   bands (ev):

   -61.0859 -35.3188 -35.1888 -35.1053 -12.9934 -12.4620  -5.4358  -4.3764
    -4.1063  -3.0576  -1.8302  -1.5877  -1.1777   1.9907   2.1197   3.1661
     3.8625

     occupation numbers 
     1.0000   1.0000   1.0000   1.0000   1.0000   1.0000   1.0000   1.0000
     1.0000   1.0000   1.0000   1.0000   1.0000   0.0000   0.0000   0.0000
     0.0000

          k =-0.0000 0.5131 0.0000 (  8038 PWs)   bands (ev):

   -61.0778 -35.3979 -35.1725 -35.1239 -12.5083 -12.2755  -5.8932  -4.9065
    -4.2336  -3.3370  -2.0519  -1.2417  -0.9259   2.0011   2.4572   3.5917
     4.0612

     occupation numbers 
     1.0000   1.0000   1.0000   1.0000   1.0000   1.0000   1.0000   1.0000
     1.0000   1.0000   1.0000   1.0000   1.0000   0.0000   0.0000   0.0000
     0.0000

          k = 0.1111 0.1924 0.0000 (  8097 PWs)   bands (ev):

   -61.1017 -35.2205 -35.1587 -35.0730 -13.7804 -12.7782  -5.2933  -3.7319
    -3.2138  -2.6600  -2.3381  -1.1414  -0.6107   1.9654   2.2457   2.3114
     3.3675

     occupation numbers 
     1.0000   1.0000   1.0000   1.0000   1.0000   1.0000   1.0000   1.0000
     1.0000   1.0000   1.0000   1.0000   1.0000   0.0000   0.0000   0.0000
     0.0000

          k = 0.1111 0.3207 0.0000 (  8086 PWs)   bands (ev):

   -61.0900 -35.2662 -35.1970 -35.1090 -13.2142 -12.5463  -5.1748  -4.0465
    -3.9936  -3.2570  -2.0809  -1.3812  -1.0263   1.7699   2.2291   2.5916
     3.9138

     occupation numbers 
     1.0000   1.0000   1.0000   1.0000   1.0000   1.0000   1.0000   1.0000
     1.0000   1.0000   1.0000   1.0000   1.0000   0.0000   0.0000   0.0000
     0.0000

          k = 0.1111 0.4490 0.0000 (  8045 PWs)   bands (ev):

   -61.0797 -35.3588 -35.1763 -35.1410 -12.6366 -12.3141  -5.5748  -4.8022
    -4.0744  -3.3863  -2.0492  -1.8406  -0.8749   1.9864   2.3640   3.2067
     4.0754

     occupation numbers 
     1.0000   1.0000   1.0000   1.0000   1.0000   1.0000   1.0000   1.0000
     1.0000   1.0000   1.0000   1.0000   1.0000   0.0000   0.0000   0.0000
     0.0000

          k = 0.1111 0.5773 0.0000 (  8030 PWs)   bands (ev):

   -61.0756 -35.3950 -35.1681 -35.1537 -12.3782 -12.2129  -5.7872  -5.1216
    -4.2104  -3.3786  -2.0618  -1.9653  -0.6263   2.0143   2.6319   3.6034
     3.9217

     occupation numbers 
     1.0000   1.0000   1.0000   1.0000   1.0000   1.0000   1.0000   1.0000
     1.0000   1.0000   1.0000   1.0000   1.0000   0.0000   0.0000   0.0000
     0.0000

          k = 0.2222 0.3848 0.0000 (  8055 PWs)   bands (ev):

   -61.0804 -35.3257 -35.1779 -35.1660 -12.6898 -12.3255  -5.3055  -4.7508
    -3.8535  -3.5130  -2.7289  -1.6105  -0.9071   1.9345   2.3727   2.7807
     4.2603

     occupation numbers 
     1.0000   1.0000   1.0000   1.0000   1.0000   1.0000   1.0000   1.0000
     1.0000   1.0000   1.0000   1.0000   1.0000   0.0000   0.0000   0.0000
     0.0000

          k = 0.2222 0.5131 0.0000 (  8041 PWs)   bands (ev):

   -61.0742 -35.3543 -35.2130 -35.1653 -12.3056 -12.1599  -5.3492  -5.3170
    -4.0095  -3.3104  -3.1485  -2.0768  -0.5287   1.8093   2.8940   3.0002
     4.3883

     occupation numbers 
     1.0000   1.0000   1.0000   1.0000   1.0000   1.0000   1.0000   1.0000
     1.0000   1.0000   1.0000   1.0000   1.0000   0.0000   0.0000   0.0000
     0.0000

          k = 0.3333 0.5773 0.0000 (  7992 PWs)   bands (ev):

   -61.0720 -35.3183 -35.2759 -35.1610 -12.1713 -12.0910  -5.6003  -4.7864
    -4.2688  -3.7633  -3.0772  -2.3597  -0.2351   1.4403   2.8487   3.3140
     4.6313

     occupation numbers 
     1.0000   1.0000   1.0000   1.0000   1.0000   1.0000   1.0000   1.0000
     1.0000   1.0000   1.0000   1.0000   1.0000   0.0000   0.0000   0.0000
     0.0000

     the Fermi energy is     0.6429 ev

!    total energy              =    -187.73276967 Ry
     estimated scf accuracy    <          4.6E-12 Ry
     smearing contrib. (-TS)   =      -0.00000000 Ry
     internal energy E=F+TS    =    -187.73276967 Ry

     The total energy is F=E-TS. E is the sum of the following terms:
     one-electron contribution =    -898.61296113 Ry
     hartree contribution      =     450.41605882 Ry
     xc contribution           =     -36.26939542 Ry
     ewald contribution        =     296.73352806 Ry

     convergence has been achieved in  21 iterations

     negative rho (up, down):  2.046E-04 0.000E+00

     Forces acting on atoms (cartesian axes, Ry/au):

     atom    1 type  1   force =     0.00000000   -0.00000000    0.00000000
     atom    2 type  2   force =    -0.00000000    0.00000000   -0.00018389
     atom    3 type  2   force =    -0.00000000   -0.00000000    0.00018389
     The non-local contrib.  to forces
     atom    1 type  1   force =    -0.00000000    0.00000000    0.00000000
     atom    2 type  2   force =    -0.00000000    0.00000000   -0.27891881
     atom    3 type  2   force =     0.00000000    0.00000000    0.27891881
     The ionic contribution  to forces
     atom    1 type  1   force =     0.00000000    0.00000005    0.00000000
     atom    2 type  2   force =     0.00000004   -0.00000002   34.34100167
     atom    3 type  2   force =    -0.00000004   -0.00000002  -34.34100167
     The local contribution  to forces
     atom    1 type  1   force =    -0.00000000    0.00000000   -0.00000000
     atom    2 type  2   force =     0.00000012   -0.00000007  -34.07657625
     atom    3 type  2   force =    -0.00000012   -0.00000007   34.07657625
     The core correction contribution to forces
     atom    1 type  1   force =    -0.00000000   -0.00000000   -0.00000000
     atom    2 type  2   force =    -0.00000001    0.00000001    0.01430752
     atom    3 type  2   force =     0.00000001    0.00000001   -0.01430752
     The Hubbard contrib.    to forces
     atom    1 type  1   force =     0.00000000    0.00000000    0.00000000
     atom    2 type  2   force =     0.00000000    0.00000000    0.00000000
     atom    3 type  2   force =     0.00000000    0.00000000    0.00000000
     The SCF correction term to forces
     atom    1 type  1   force =    -0.00000000   -0.00000000    0.00000000
     atom    2 type  2   force =    -0.00000000   -0.00000000    0.00000199
     atom    3 type  2   force =     0.00000000    0.00000000   -0.00000199

     Total force =     0.000260     Total SCF correction =     0.000003


     Computing stress (Cartesian axis) and pressure


     negative rho (up, down):  2.046E-04 0.000E+00
          total   stress  (Ry/bohr**3)                   (kbar)     P=       -0.36
  -0.00000311   0.00000000   0.00000000           -0.46        0.00        0.00
   0.00000000  -0.00000311   0.00000000            0.00       -0.46        0.00
   0.00000000  -0.00000000  -0.00000106            0.00       -0.00       -0.16

     kinetic stress (kbar)   4235.57      0.00     -0.00
                                0.00   4235.57     -0.00
                               -0.00     -0.00   4287.76

     local   stress (kbar)-126736.96     -0.00     -0.00
                               -0.00-126736.96      0.00
                               -0.00      0.00 124362.47

     nonloc. stress (kbar)   4462.35     -0.00      0.00
                               -0.00   4462.35      0.00
                                0.00      0.00   4475.33

     hartree stress (kbar)  62102.17     -0.00     -0.00
                               -0.00  62102.17     -0.00
                               -0.00     -0.00 -59715.02

     exc-cor stress (kbar)    318.62     -0.00      0.00
                               -0.00    318.62      0.00
                                0.00      0.00    317.75

     corecor stress (kbar)  -1658.85      0.00     -0.00
                                0.00  -1658.85      0.00
                               -0.00      0.00  -1660.63

     ewald   stress (kbar)  57276.65     -0.00      0.00
                               -0.00  57276.65     -0.00
                                0.00     -0.00 -72067.82

     hubbard stress (kbar)      0.00      0.00      0.00
                                0.00      0.00      0.00
                                0.00      0.00      0.00

     DFT-D   stress (kbar)      0.00      0.00      0.00
                                0.00      0.00      0.00
                                0.00      0.00      0.00

     XDM     stress (kbar)      0.00      0.00      0.00
                                0.00      0.00      0.00
                                0.00      0.00      0.00

     dft-nl  stress (kbar)      0.00      0.00      0.00
                                0.00      0.00      0.00
                                0.00      0.00      0.00

     TS-vdW  stress (kbar)      0.00      0.00      0.00
                                0.00      0.00      0.00
                                0.00      0.00      0.00

     MDB     stress (kbar)      0.00      0.00      0.00
                                0.00      0.00      0.00
                                0.00      0.00      0.00

     3D-RISM stress (kbar)      0.00      0.00      0.00
                                0.00      0.00      0.00
                                0.00      0.00      0.00

     Energy error            =      1.2E-06 Ry
     Gradient error          =      1.8E-04 Ry/Bohr
     Cell gradient error     =      4.6E-01 kbar

     number of scf cycles    =   6
     number of bfgs steps    =   5

     enthalpy           old  =    -187.7327684496 Ry
     enthalpy           new  =    -187.7327696692 Ry

     CASE: enthalpy          _new < enthalpy          _old

     new trust radius        =       0.0017815390 bohr
     new conv_thr            =            1.0E-10 Ry

     new unit-cell volume =   1026.86263 a.u.^3 (   152.16534 Ang^3 )
     density =      1.74682 g/cm^3

CELL_PARAMETERS (angstrom)
   3.183725720   0.000000000   0.000000000
  -1.591862860   2.757187352   0.000000000
   0.000000000   0.000000000  17.334599950

ATOMIC_POSITIONS (crystal)
Mo           -0.0000000000       -0.0000000000        0.5000000000
S             0.3333333300        0.6666666700        0.5901266712
S             0.3333333400        0.6666666700        0.4098733288



     Writing config-only to output data dir ./tmp/pwscf.save/
     NEW-OLD atomic charge density approx. for the potential

     negative rho (up, down):  2.022E-04 0.000E+00
     extrapolated charge   25.98554, renormalised to   26.00000

     total cpu time spent up to now is     1027.4 secs

     Self-consistent Calculation

     iteration #  1     ecut=    60.00 Ry     beta= 0.70
     Davidson diagonalization with overlap

---- Real-time Memory Report at c_bands before calling an iterative solver
          1591 MiB given to the printing process from OS
             0 MiB allocation reported by mallinfo(arena+hblkhd)
          1254 MiB available memory on the node where the printing process lives
------------------
     ethr =  1.00E-06,  avg # of iterations =  3.0

     negative rho (up, down):  2.075E-04 0.000E+00

     total cpu time spent up to now is     1034.2 secs

     total energy              =    -187.73125138 Ry
     estimated scf accuracy    <       0.00146213 Ry

     iteration #  2     ecut=    60.00 Ry     beta= 0.70
     Davidson diagonalization with overlap

---- Real-time Memory Report at c_bands before calling an iterative solver
          1591 MiB given to the printing process from OS
             0 MiB allocation reported by mallinfo(arena+hblkhd)
          1221 MiB available memory on the node where the printing process lives
------------------
     ethr =  5.62E-06,  avg # of iterations =  5.0

     negative rho (up, down):  2.059E-04 0.000E+00

     total cpu time spent up to now is     1041.1 secs

     total energy              =    -187.73044107 Ry
     estimated scf accuracy    <       0.03082500 Ry

     iteration #  3     ecut=    60.00 Ry     beta= 0.70
     Davidson diagonalization with overlap

---- Real-time Memory Report at c_bands before calling an iterative solver
          1591 MiB given to the printing process from OS
             0 MiB allocation reported by mallinfo(arena+hblkhd)
          1221 MiB available memory on the node where the printing process lives
------------------
     ethr =  5.62E-06,  avg # of iterations =  4.0

     negative rho (up, down):  2.054E-04 0.000E+00

     total cpu time spent up to now is     1047.4 secs

     total energy              =    -187.73279141 Ry
     estimated scf accuracy    <       0.00116989 Ry

     iteration #  4     ecut=    60.00 Ry     beta= 0.70
     Davidson diagonalization with overlap

---- Real-time Memory Report at c_bands before calling an iterative solver
          1591 MiB given to the printing process from OS
             0 MiB allocation reported by mallinfo(arena+hblkhd)
          1214 MiB available memory on the node where the printing process lives
------------------
     ethr =  4.50E-06,  avg # of iterations =  1.0

     negative rho (up, down):  2.048E-04 0.000E+00

     total cpu time spent up to now is     1052.6 secs

     total energy              =    -187.73275927 Ry
     estimated scf accuracy    <       0.00050390 Ry

     iteration #  5     ecut=    60.00 Ry     beta= 0.70
     Davidson diagonalization with overlap

---- Real-time Memory Report at c_bands before calling an iterative solver
          1591 MiB given to the printing process from OS
             0 MiB allocation reported by mallinfo(arena+hblkhd)
          1208 MiB available memory on the node where the printing process lives
------------------
     ethr =  1.94E-06,  avg # of iterations =  1.4

     negative rho (up, down):  2.047E-04 0.000E+00

     total cpu time spent up to now is     1057.8 secs

     total energy              =    -187.73276930 Ry
     estimated scf accuracy    <       0.00015970 Ry

     iteration #  6     ecut=    60.00 Ry     beta= 0.70
     Davidson diagonalization with overlap

---- Real-time Memory Report at c_bands before calling an iterative solver
          1591 MiB given to the printing process from OS
             0 MiB allocation reported by mallinfo(arena+hblkhd)
          1209 MiB available memory on the node where the printing process lives
------------------
     ethr =  6.14E-07,  avg # of iterations =  1.9

     negative rho (up, down):  2.048E-04 0.000E+00

     total cpu time spent up to now is     1063.2 secs

     total energy              =    -187.73277595 Ry
     estimated scf accuracy    <       0.00008238 Ry

     iteration #  7     ecut=    60.00 Ry     beta= 0.70
     Davidson diagonalization with overlap

---- Real-time Memory Report at c_bands before calling an iterative solver
          1591 MiB given to the printing process from OS
             0 MiB allocation reported by mallinfo(arena+hblkhd)
          1192 MiB available memory on the node where the printing process lives
------------------
     ethr =  3.17E-07,  avg # of iterations =  1.0

     negative rho (up, down):  2.049E-04 0.000E+00

     total cpu time spent up to now is     1068.2 secs

     total energy              =    -187.73277653 Ry
     estimated scf accuracy    <       0.00006697 Ry

     iteration #  8     ecut=    60.00 Ry     beta= 0.70
     Davidson diagonalization with overlap

---- Real-time Memory Report at c_bands before calling an iterative solver
          1591 MiB given to the printing process from OS
             0 MiB allocation reported by mallinfo(arena+hblkhd)
          1192 MiB available memory on the node where the printing process lives
------------------
     ethr =  2.58E-07,  avg # of iterations =  1.0

     negative rho (up, down):  2.048E-04 0.000E+00

     total cpu time spent up to now is     1073.4 secs

     total energy              =    -187.73277396 Ry
     estimated scf accuracy    <       0.00005581 Ry

     iteration #  9     ecut=    60.00 Ry     beta= 0.70
     Davidson diagonalization with overlap

---- Real-time Memory Report at c_bands before calling an iterative solver
          1591 MiB given to the printing process from OS
             0 MiB allocation reported by mallinfo(arena+hblkhd)
          1187 MiB available memory on the node where the printing process lives
------------------
     ethr =  2.15E-07,  avg # of iterations =  1.0

     negative rho (up, down):  2.049E-04 0.000E+00

     total cpu time spent up to now is     1078.5 secs

     total energy              =    -187.73277420 Ry
     estimated scf accuracy    <       0.00003351 Ry

     iteration # 10     ecut=    60.00 Ry     beta= 0.70
     Davidson diagonalization with overlap

---- Real-time Memory Report at c_bands before calling an iterative solver
          1591 MiB given to the printing process from OS
             0 MiB allocation reported by mallinfo(arena+hblkhd)
          1188 MiB available memory on the node where the printing process lives
------------------
     ethr =  1.29E-07,  avg # of iterations =  1.0

     negative rho (up, down):  2.046E-04 0.000E+00

     total cpu time spent up to now is     1083.6 secs

     total energy              =    -187.73276766 Ry
     estimated scf accuracy    <       0.00002946 Ry

     iteration # 11     ecut=    60.00 Ry     beta= 0.70
     Davidson diagonalization with overlap

---- Real-time Memory Report at c_bands before calling an iterative solver
          1591 MiB given to the printing process from OS
             0 MiB allocation reported by mallinfo(arena+hblkhd)
          1176 MiB available memory on the node where the printing process lives
------------------
     ethr =  1.13E-07,  avg # of iterations =  1.9

     negative rho (up, down):  2.046E-04 0.000E+00

     total cpu time spent up to now is     1088.9 secs

     total energy              =    -187.73277052 Ry
     estimated scf accuracy    <       0.00000077 Ry

     iteration # 12     ecut=    60.00 Ry     beta= 0.70
     Davidson diagonalization with overlap

---- Real-time Memory Report at c_bands before calling an iterative solver
          1591 MiB given to the printing process from OS
             0 MiB allocation reported by mallinfo(arena+hblkhd)
          1185 MiB available memory on the node where the printing process lives
------------------
     ethr =  2.97E-09,  avg # of iterations =  4.0

     negative rho (up, down):  2.046E-04 0.000E+00

     total cpu time spent up to now is     1095.0 secs

     total energy              =    -187.73277077 Ry
     estimated scf accuracy    <       0.00000006 Ry

     iteration # 13     ecut=    60.00 Ry     beta= 0.70
     Davidson diagonalization with overlap

---- Real-time Memory Report at c_bands before calling an iterative solver
          1591 MiB given to the printing process from OS
             0 MiB allocation reported by mallinfo(arena+hblkhd)
          1180 MiB available memory on the node where the printing process lives
------------------
     ethr =  2.20E-10,  avg # of iterations =  3.4

     negative rho (up, down):  2.045E-04 0.000E+00

     total cpu time spent up to now is     1100.6 secs

     total energy              =    -187.73277077 Ry
     estimated scf accuracy    <          7.2E-09 Ry

     iteration # 14     ecut=    60.00 Ry     beta= 0.70
     Davidson diagonalization with overlap

---- Real-time Memory Report at c_bands before calling an iterative solver
          1591 MiB given to the printing process from OS
             0 MiB allocation reported by mallinfo(arena+hblkhd)
          1175 MiB available memory on the node where the printing process lives
------------------
     ethr =  2.79E-11,  avg # of iterations =  3.8

     negative rho (up, down):  2.046E-04 0.000E+00

     total cpu time spent up to now is     1107.2 secs

     total energy              =    -187.73277075 Ry
     estimated scf accuracy    <       0.00000008 Ry

     iteration # 15     ecut=    60.00 Ry     beta= 0.70
     Davidson diagonalization with overlap

---- Real-time Memory Report at c_bands before calling an iterative solver
          1591 MiB given to the printing process from OS
             0 MiB allocation reported by mallinfo(arena+hblkhd)
          1176 MiB available memory on the node where the printing process lives
------------------
     ethr =  2.79E-11,  avg # of iterations =  4.0

     negative rho (up, down):  2.046E-04 0.000E+00

     total cpu time spent up to now is     1113.9 secs

     total energy              =    -187.73277078 Ry
     estimated scf accuracy    <       0.00000006 Ry

     iteration # 16     ecut=    60.00 Ry     beta= 0.70
     Davidson diagonalization with overlap

---- Real-time Memory Report at c_bands before calling an iterative solver
          1591 MiB given to the printing process from OS
             0 MiB allocation reported by mallinfo(arena+hblkhd)
          1172 MiB available memory on the node where the printing process lives
------------------
     ethr =  2.79E-11,  avg # of iterations =  1.8

     negative rho (up, down):  2.046E-04 0.000E+00

     total cpu time spent up to now is     1119.3 secs

     total energy              =    -187.73277077 Ry
     estimated scf accuracy    <       0.00000004 Ry

     iteration # 17     ecut=    60.00 Ry     beta= 0.70
     Davidson diagonalization with overlap

---- Real-time Memory Report at c_bands before calling an iterative solver
          1591 MiB given to the printing process from OS
             0 MiB allocation reported by mallinfo(arena+hblkhd)
          1172 MiB available memory on the node where the printing process lives
------------------
     ethr =  2.79E-11,  avg # of iterations =  2.6

     negative rho (up, down):  2.046E-04 0.000E+00

     total cpu time spent up to now is     1125.1 secs

     total energy              =    -187.73277078 Ry
     estimated scf accuracy    <          1.9E-09 Ry

     iteration # 18     ecut=    60.00 Ry     beta= 0.70
     Davidson diagonalization with overlap

---- Real-time Memory Report at c_bands before calling an iterative solver
          1591 MiB given to the printing process from OS
             0 MiB allocation reported by mallinfo(arena+hblkhd)
          1165 MiB available memory on the node where the printing process lives
------------------
     ethr =  7.36E-12,  avg # of iterations =  1.0

     negative rho (up, down):  2.046E-04 0.000E+00

     total cpu time spent up to now is     1130.2 secs

     total energy              =    -187.73277078 Ry
     estimated scf accuracy    <          3.3E-09 Ry

     iteration # 19     ecut=    60.00 Ry     beta= 0.70
     Davidson diagonalization with overlap

---- Real-time Memory Report at c_bands before calling an iterative solver
          1591 MiB given to the printing process from OS
             0 MiB allocation reported by mallinfo(arena+hblkhd)
          1165 MiB available memory on the node where the printing process lives
------------------
     ethr =  7.36E-12,  avg # of iterations =  1.0

     negative rho (up, down):  2.046E-04 0.000E+00

     total cpu time spent up to now is     1135.4 secs

     total energy              =    -187.73277078 Ry
     estimated scf accuracy    <          3.3E-09 Ry

     iteration # 20     ecut=    60.00 Ry     beta= 0.70
     Davidson diagonalization with overlap

---- Real-time Memory Report at c_bands before calling an iterative solver
          1591 MiB given to the printing process from OS
             0 MiB allocation reported by mallinfo(arena+hblkhd)
          1164 MiB available memory on the node where the printing process lives
------------------
     ethr =  7.36E-12,  avg # of iterations =  1.0

     negative rho (up, down):  2.046E-04 0.000E+00

     total cpu time spent up to now is     1140.4 secs

     total energy              =    -187.73277078 Ry
     estimated scf accuracy    <          1.9E-09 Ry

     iteration # 21     ecut=    60.00 Ry     beta= 0.70
     Davidson diagonalization with overlap

---- Real-time Memory Report at c_bands before calling an iterative solver
          1591 MiB given to the printing process from OS
             0 MiB allocation reported by mallinfo(arena+hblkhd)
          1167 MiB available memory on the node where the printing process lives
------------------
     ethr =  7.36E-12,  avg # of iterations =  1.9

     negative rho (up, down):  2.046E-04 0.000E+00

     total cpu time spent up to now is     1145.7 secs

     total energy              =    -187.73277077 Ry
     estimated scf accuracy    <          4.0E-10 Ry

     iteration # 22     ecut=    60.00 Ry     beta= 0.70
     Davidson diagonalization with overlap

---- Real-time Memory Report at c_bands before calling an iterative solver
          1591 MiB given to the printing process from OS
             0 MiB allocation reported by mallinfo(arena+hblkhd)
          1164 MiB available memory on the node where the printing process lives
------------------
     ethr =  1.55E-12,  avg # of iterations =  3.8

     negative rho (up, down):  2.046E-04 0.000E+00

     total cpu time spent up to now is     1151.7 secs

     End of self-consistent calculation

          k = 0.0000 0.0000 0.0000 (  8091 PWs)   bands (ev):

   -61.1092 -35.2405 -35.0365 -35.0365 -14.2926 -12.9882  -5.8105  -2.8205
    -2.8205  -1.9807  -1.7174  -1.7174  -0.2117   2.5435   2.5435   2.7928
     2.7928

     occupation numbers 
     1.0000   1.0000   1.0000   1.0000   1.0000   1.0000   1.0000   1.0000
     1.0000   1.0000   1.0000   1.0000   1.0000   0.0000   0.0000   0.0000
     0.0000

          k =-0.0000 0.1283 0.0000 (  8095 PWs)   bands (ev):

   -61.1049 -35.2319 -35.0807 -35.0465 -14.1131 -12.9144  -5.6091  -3.2051
    -2.6841  -2.6336  -1.9922  -1.3056  -0.3150   2.3575   2.3597   2.5975
     2.8451

     occupation numbers 
     1.0000   1.0000   1.0000   1.0000   1.0000   1.0000   1.0000   1.0000
     1.0000   1.0000   1.0000   1.0000   1.0000   0.0000   0.0000   0.0000
     0.0000

          k =-0.0000 0.2566 0.0000 (  8071 PWs)   bands (ev):

   -61.0939 -35.2099 -35.1912 -35.0719 -13.6253 -12.7147  -5.2204  -3.9058
    -3.5551  -2.5523  -2.1456  -1.4313  -0.7797   1.9617   2.2211   2.5400
     3.4256

     occupation numbers 
     1.0000   1.0000   1.0000   1.0000   1.0000   1.0000   1.0000   1.0000
     1.0000   1.0000   1.0000   1.0000   1.0000   0.0000   0.0000   0.0000
     0.0000

          k =-0.0000 0.3849 0.0000 (  8069 PWs)   bands (ev):

   -61.0814 -35.3147 -35.1848 -35.1006 -12.9906 -12.4601  -5.4342  -4.3753
    -4.1035  -3.0537  -1.8285  -1.5818  -1.1754   1.9962   2.1235   3.1714
     3.8682

     occupation numbers 
     1.0000   1.0000   1.0000   1.0000   1.0000   1.0000   1.0000   1.0000
     1.0000   1.0000   1.0000   1.0000   1.0000   0.0000   0.0000   0.0000
     0.0000

          k =-0.0000 0.5133 0.0000 (  8038 PWs)   bands (ev):

   -61.0732 -35.3940 -35.1684 -35.1193 -12.5046 -12.2732  -5.8923  -4.9059
    -4.2314  -3.3332  -2.0506  -1.2359  -0.9230   2.0077   2.4632   3.5966
     4.0666

     occupation numbers 
     1.0000   1.0000   1.0000   1.0000   1.0000   1.0000   1.0000   1.0000
     1.0000   1.0000   1.0000   1.0000   1.0000   0.0000   0.0000   0.0000
     0.0000

          k = 0.1111 0.1925 0.0000 (  8097 PWs)   bands (ev):

   -61.0972 -35.2166 -35.1541 -35.0682 -13.7787 -12.7769  -5.2916  -3.7280
    -3.2118  -2.6561  -2.3328  -1.1382  -0.6087   1.9687   2.2510   2.3162
     3.3734

     occupation numbers 
     1.0000   1.0000   1.0000   1.0000   1.0000   1.0000   1.0000   1.0000
     1.0000   1.0000   1.0000   1.0000   1.0000   0.0000   0.0000   0.0000
     0.0000

          k = 0.1111 0.3208 0.0000 (  8086 PWs)   bands (ev):

   -61.0854 -35.2620 -35.1930 -35.1043 -13.2117 -12.5446  -5.1729  -4.0433
    -3.9917  -3.2543  -2.0762  -1.3784  -1.0234   1.7732   2.2343   2.5968
     3.9196

     occupation numbers 
     1.0000   1.0000   1.0000   1.0000   1.0000   1.0000   1.0000   1.0000
     1.0000   1.0000   1.0000   1.0000   1.0000   0.0000   0.0000   0.0000
     0.0000

          k = 0.1111 0.4491 0.0000 (  8045 PWs)   bands (ev):

   -61.0751 -35.3549 -35.1722 -35.1364 -12.6332 -12.3119  -5.5734  -4.8010
    -4.0718  -3.3837  -2.0453  -1.8386  -0.8710   1.9912   2.3704   3.2116
     4.0807

     occupation numbers 
     1.0000   1.0000   1.0000   1.0000   1.0000   1.0000   1.0000   1.0000
     1.0000   1.0000   1.0000   1.0000   1.0000   0.0000   0.0000   0.0000
     0.0000

          k = 0.1111 0.5774 0.0000 (  8030 PWs)   bands (ev):

   -61.0710 -35.3911 -35.1640 -35.1491 -12.3743 -12.2104  -5.7863  -5.1208
    -4.2082  -3.3758  -2.0603  -1.9612  -0.6222   2.0209   2.6385   3.6080
     3.9269

     occupation numbers 
     1.0000   1.0000   1.0000   1.0000   1.0000   1.0000   1.0000   1.0000
     1.0000   1.0000   1.0000   1.0000   1.0000   0.0000   0.0000   0.0000
     0.0000

          k = 0.2223 0.3849 0.0000 (  8055 PWs)   bands (ev):

   -61.0758 -35.3216 -35.1738 -35.1614 -12.6865 -12.3232  -5.3039  -4.7491
    -3.8501  -3.5115  -2.7260  -1.6080  -0.9032   1.9378   2.3799   2.7851
     4.2661

     occupation numbers 
     1.0000   1.0000   1.0000   1.0000   1.0000   1.0000   1.0000   1.0000
     1.0000   1.0000   1.0000   1.0000   1.0000   0.0000   0.0000   0.0000
     0.0000

          k = 0.2223 0.5133 0.0000 (  8041 PWs)   bands (ev):

   -61.0696 -35.3503 -35.2086 -35.1612 -12.3016 -12.1573  -5.3482  -5.3158
    -4.0070  -3.3086  -3.1455  -2.0749  -0.5247   1.8158   2.9002   3.0034
     4.3950

     occupation numbers 
     1.0000   1.0000   1.0000   1.0000   1.0000   1.0000   1.0000   1.0000
     1.0000   1.0000   1.0000   1.0000   1.0000   0.0000   0.0000   0.0000
     0.0000

          k = 0.3334 0.5774 0.0000 (  7992 PWs)   bands (ev):

   -61.0674 -35.3142 -35.2717 -35.1568 -12.1670 -12.0882  -5.5995  -4.7851
    -4.2671  -3.7600  -3.0754  -2.3581  -0.2310   1.4473   2.8511   3.3198
     4.6390

     occupation numbers 
     1.0000   1.0000   1.0000   1.0000   1.0000   1.0000   1.0000   1.0000
     1.0000   1.0000   1.0000   1.0000   1.0000   0.0000   0.0000   0.0000
     0.0000

     the Fermi energy is     0.6504 ev

!    total energy              =    -187.73277078 Ry
     estimated scf accuracy    <          6.9E-11 Ry
     smearing contrib. (-TS)   =      -0.00000000 Ry
     internal energy E=F+TS    =    -187.73277078 Ry

     The total energy is F=E-TS. E is the sum of the following terms:
     one-electron contribution =    -899.00855367 Ry
     hartree contribution      =     450.61761718 Ry
     xc contribution           =     -36.27038233 Ry
     ewald contribution        =     296.92854804 Ry

     convergence has been achieved in  22 iterations

     negative rho (up, down):  2.046E-04 0.000E+00

     Forces acting on atoms (cartesian axes, Ry/au):

     atom    1 type  1   force =    -0.00000000    0.00000000    0.00000000
     atom    2 type  2   force =     0.00000000    0.00000000   -0.00012385
     atom    3 type  2   force =     0.00000000    0.00000000    0.00012385
     The non-local contrib.  to forces
     atom    1 type  1   force =    -0.00000000    0.00000000    0.00000000
     atom    2 type  2   force =    -0.00000000    0.00000000   -0.27875611
     atom    3 type  2   force =    -0.00000000    0.00000000    0.27875611
     The ionic contribution  to forces
     atom    1 type  1   force =    -0.00000000    0.00000005    0.00000000
     atom    2 type  2   force =     0.00000004   -0.00000002   34.36179229
     atom    3 type  2   force =    -0.00000004   -0.00000002  -34.36179229
     The local contribution  to forces
     atom    1 type  1   force =    -0.00000000    0.00000000   -0.00000000
     atom    2 type  2   force =     0.00000012   -0.00000007  -34.09747575
     atom    3 type  2   force =    -0.00000012   -0.00000007   34.09747575
     The core correction contribution to forces
     atom    1 type  1   force =     0.00000000   -0.00000000    0.00000000
     atom    2 type  2   force =    -0.00000001    0.00000001    0.01429622
     atom    3 type  2   force =     0.00000001    0.00000001   -0.01429622
     The Hubbard contrib.    to forces
     atom    1 type  1   force =     0.00000000    0.00000000    0.00000000
     atom    2 type  2   force =     0.00000000    0.00000000    0.00000000
     atom    3 type  2   force =     0.00000000    0.00000000    0.00000000
     The SCF correction term to forces
     atom    1 type  1   force =     0.00000000    0.00000000   -0.00000000
     atom    2 type  2   force =    -0.00000000    0.00000000    0.00001950
     atom    3 type  2   force =     0.00000000    0.00000000   -0.00001950

     Total force =     0.000175     Total SCF correction =     0.000028
     SCF correction compared to forces is large: reduce conv_thr to get better values


     Computing stress (Cartesian axis) and pressure


     negative rho (up, down):  2.046E-04 0.000E+00
          total   stress  (Ry/bohr**3)                   (kbar)     P=       -0.15
  -0.00000120  -0.00000000   0.00000000           -0.18       -0.00        0.00
  -0.00000000  -0.00000120   0.00000000           -0.00       -0.18        0.00
   0.00000000   0.00000000  -0.00000062            0.00        0.00       -0.09

     kinetic stress (kbar)   4238.29     -0.00      0.00
                               -0.00   4238.29      0.00
                                0.00      0.00   4290.11

     local   stress (kbar)-126868.37      0.00     -0.00
                                0.00-126868.37     -0.00
                               -0.00     -0.00 124496.53

     nonloc. stress (kbar)   4464.90     -0.00     -0.00
                               -0.00   4464.90     -0.00
                                0.00      0.00   4477.89

     hartree stress (kbar)  62166.83     -0.00      0.00
                               -0.00  62166.83     -0.00
                                0.00     -0.00 -59779.62

     exc-cor stress (kbar)    318.76     -0.00      0.00
                               -0.00    318.76     -0.00
                                0.00     -0.00    317.89

     corecor stress (kbar)  -1659.78      0.00     -0.00
                                0.00  -1659.78     -0.00
                               -0.00     -0.00  -1661.56

     ewald   stress (kbar)  57339.18     -0.00      0.00
                               -0.00  57339.18     -0.00
                                0.00     -0.00 -72141.33

     hubbard stress (kbar)      0.00      0.00      0.00
                                0.00      0.00      0.00
                                0.00      0.00      0.00

     DFT-D   stress (kbar)      0.00      0.00      0.00
                                0.00      0.00      0.00
                                0.00      0.00      0.00

     XDM     stress (kbar)      0.00      0.00      0.00
                                0.00      0.00      0.00
                                0.00      0.00      0.00

     dft-nl  stress (kbar)      0.00      0.00      0.00
                                0.00      0.00      0.00
                                0.00      0.00      0.00

     TS-vdW  stress (kbar)      0.00      0.00      0.00
                                0.00      0.00      0.00
                                0.00      0.00      0.00

     MDB     stress (kbar)      0.00      0.00      0.00
                                0.00      0.00      0.00
                                0.00      0.00      0.00

     3D-RISM stress (kbar)      0.00      0.00      0.00
                                0.00      0.00      0.00
                                0.00      0.00      0.00

     Energy error            =      1.1E-06 Ry
     Gradient error          =      1.2E-04 Ry/Bohr
     Cell gradient error     =      1.8E-01 kbar

     number of scf cycles    =   7
     number of bfgs steps    =   6

     enthalpy           old  =    -187.7327696692 Ry
     enthalpy           new  =    -187.7327707750 Ry

     CASE: enthalpy          _new < enthalpy          _old

     new trust radius        =       0.0009655550 bohr
     new conv_thr            =            1.0E-10 Ry

     new unit-cell volume =   1026.55324 a.u.^3 (   152.11950 Ang^3 )
     density =      1.74735 g/cm^3

CELL_PARAMETERS (angstrom)
   3.183246068   0.000000000   0.000000000
  -1.591623034   2.756771961   0.000000000
   0.000000000   0.000000000  17.334599950

ATOMIC_POSITIONS (crystal)
Mo            0.0000000000        0.0000000000        0.5000000000
S             0.3333333300        0.6666666700        0.5901283080
S             0.3333333400        0.6666666700        0.4098716920



     Writing config-only to output data dir ./tmp/pwscf.save/
     NEW-OLD atomic charge density approx. for the potential

     negative rho (up, down):  2.034E-04 0.000E+00
     extrapolated charge   25.99216, renormalised to   26.00000

     total cpu time spent up to now is     1234.1 secs

     Self-consistent Calculation

     iteration #  1     ecut=    60.00 Ry     beta= 0.70
     Davidson diagonalization with overlap

---- Real-time Memory Report at c_bands before calling an iterative solver
          1591 MiB given to the printing process from OS
             0 MiB allocation reported by mallinfo(arena+hblkhd)
          1229 MiB available memory on the node where the printing process lives
------------------
     ethr =  1.00E-06,  avg # of iterations =  2.1

     negative rho (up, down):  2.061E-04 0.000E+00

     total cpu time spent up to now is     1240.3 secs

     total energy              =    -187.73234482 Ry
     estimated scf accuracy    <       0.00040900 Ry

     iteration #  2     ecut=    60.00 Ry     beta= 0.70
     Davidson diagonalization with overlap

---- Real-time Memory Report at c_bands before calling an iterative solver
          1591 MiB given to the printing process from OS
             0 MiB allocation reported by mallinfo(arena+hblkhd)
          1202 MiB available memory on the node where the printing process lives
------------------
     ethr =  1.57E-06,  avg # of iterations =  5.0

     negative rho (up, down):  2.051E-04 0.000E+00

     total cpu time spent up to now is     1247.1 secs

     total energy              =    -187.73211091 Ry
     estimated scf accuracy    <       0.00870954 Ry

     iteration #  3     ecut=    60.00 Ry     beta= 0.70
     Davidson diagonalization with overlap

---- Real-time Memory Report at c_bands before calling an iterative solver
          1591 MiB given to the printing process from OS
             0 MiB allocation reported by mallinfo(arena+hblkhd)
          1195 MiB available memory on the node where the printing process lives
------------------
     ethr =  1.57E-06,  avg # of iterations =  4.0

     negative rho (up, down):  2.050E-04 0.000E+00

     total cpu time spent up to now is     1253.0 secs

     total energy              =    -187.73277657 Ry
     estimated scf accuracy    <       0.00032327 Ry

     iteration #  4     ecut=    60.00 Ry     beta= 0.70
     Davidson diagonalization with overlap

---- Real-time Memory Report at c_bands before calling an iterative solver
          1591 MiB given to the printing process from OS
             0 MiB allocation reported by mallinfo(arena+hblkhd)
          1203 MiB available memory on the node where the printing process lives
------------------
     ethr =  1.24E-06,  avg # of iterations =  1.0

     negative rho (up, down):  2.047E-04 0.000E+00

     total cpu time spent up to now is     1258.2 secs

     total energy              =    -187.73276773 Ry
     estimated scf accuracy    <       0.00013865 Ry

     iteration #  5     ecut=    60.00 Ry     beta= 0.70
     Davidson diagonalization with overlap

---- Real-time Memory Report at c_bands before calling an iterative solver
          1591 MiB given to the printing process from OS
             0 MiB allocation reported by mallinfo(arena+hblkhd)
          1198 MiB available memory on the node where the printing process lives
------------------
     ethr =  5.33E-07,  avg # of iterations =  1.2

     negative rho (up, down):  2.046E-04 0.000E+00

     total cpu time spent up to now is     1263.4 secs

     total energy              =    -187.73277095 Ry
     estimated scf accuracy    <       0.00004255 Ry

     iteration #  6     ecut=    60.00 Ry     beta= 0.70
     Davidson diagonalization with overlap

---- Real-time Memory Report at c_bands before calling an iterative solver
          1591 MiB given to the printing process from OS
             0 MiB allocation reported by mallinfo(arena+hblkhd)
          1187 MiB available memory on the node where the printing process lives
------------------
     ethr =  1.64E-07,  avg # of iterations =  1.9

     negative rho (up, down):  2.047E-04 0.000E+00

     total cpu time spent up to now is     1268.7 secs

     total energy              =    -187.73277249 Ry
     estimated scf accuracy    <       0.00002329 Ry

     iteration #  7     ecut=    60.00 Ry     beta= 0.70
     Davidson diagonalization with overlap

---- Real-time Memory Report at c_bands before calling an iterative solver
          1591 MiB given to the printing process from OS
             0 MiB allocation reported by mallinfo(arena+hblkhd)
          1186 MiB available memory on the node where the printing process lives
------------------
     ethr =  8.96E-08,  avg # of iterations =  1.0

     negative rho (up, down):  2.048E-04 0.000E+00

     total cpu time spent up to now is     1273.8 secs

     total energy              =    -187.73277259 Ry
     estimated scf accuracy    <       0.00001873 Ry

     iteration #  8     ecut=    60.00 Ry     beta= 0.70
     Davidson diagonalization with overlap

---- Real-time Memory Report at c_bands before calling an iterative solver
          1591 MiB given to the printing process from OS
             0 MiB allocation reported by mallinfo(arena+hblkhd)
          1188 MiB available memory on the node where the printing process lives
------------------
     ethr =  7.20E-08,  avg # of iterations =  1.0

     negative rho (up, down):  2.048E-04 0.000E+00

     total cpu time spent up to now is     1278.8 secs

     total energy              =    -187.73277176 Ry
     estimated scf accuracy    <       0.00001552 Ry

     iteration #  9     ecut=    60.00 Ry     beta= 0.70
     Davidson diagonalization with overlap

---- Real-time Memory Report at c_bands before calling an iterative solver
          1591 MiB given to the printing process from OS
             0 MiB allocation reported by mallinfo(arena+hblkhd)
          1185 MiB available memory on the node where the printing process lives
------------------
     ethr =  5.97E-08,  avg # of iterations =  1.0

     negative rho (up, down):  2.048E-04 0.000E+00

     total cpu time spent up to now is     1283.9 secs

     total energy              =    -187.73277163 Ry
     estimated scf accuracy    <       0.00000877 Ry

     iteration # 10     ecut=    60.00 Ry     beta= 0.70
     Davidson diagonalization with overlap

---- Real-time Memory Report at c_bands before calling an iterative solver
          1591 MiB given to the printing process from OS
             0 MiB allocation reported by mallinfo(arena+hblkhd)
          1186 MiB available memory on the node where the printing process lives
------------------
     ethr =  3.37E-08,  avg # of iterations =  1.0

     negative rho (up, down):  2.046E-04 0.000E+00

     total cpu time spent up to now is     1289.0 secs

     total energy              =    -187.73277019 Ry
     estimated scf accuracy    <       0.00000642 Ry

     iteration # 11     ecut=    60.00 Ry     beta= 0.70
     Davidson diagonalization with overlap

---- Real-time Memory Report at c_bands before calling an iterative solver
          1591 MiB given to the printing process from OS
             0 MiB allocation reported by mallinfo(arena+hblkhd)
          1181 MiB available memory on the node where the printing process lives
------------------
     ethr =  2.47E-08,  avg # of iterations =  2.0

     negative rho (up, down):  2.046E-04 0.000E+00

     total cpu time spent up to now is     1294.5 secs

     total energy              =    -187.73277092 Ry
     estimated scf accuracy    <       0.00000012 Ry

     iteration # 12     ecut=    60.00 Ry     beta= 0.70
     Davidson diagonalization with overlap

---- Real-time Memory Report at c_bands before calling an iterative solver
          1591 MiB given to the printing process from OS
             0 MiB allocation reported by mallinfo(arena+hblkhd)
          1172 MiB available memory on the node where the printing process lives
------------------
     ethr =  4.54E-10,  avg # of iterations =  4.0

     negative rho (up, down):  2.047E-04 0.000E+00

     total cpu time spent up to now is     1300.5 secs

     total energy              =    -187.73277097 Ry
     estimated scf accuracy    <       0.00000002 Ry

     iteration # 13     ecut=    60.00 Ry     beta= 0.70
     Davidson diagonalization with overlap

---- Real-time Memory Report at c_bands before calling an iterative solver
          1591 MiB given to the printing process from OS
             0 MiB allocation reported by mallinfo(arena+hblkhd)
          1173 MiB available memory on the node where the printing process lives
------------------
     ethr =  9.08E-11,  avg # of iterations =  1.3

     negative rho (up, down):  2.047E-04 0.000E+00

     total cpu time spent up to now is     1305.7 secs

     total energy              =    -187.73277096 Ry
     estimated scf accuracy    <       0.00000002 Ry

     iteration # 14     ecut=    60.00 Ry     beta= 0.70
     Davidson diagonalization with overlap

---- Real-time Memory Report at c_bands before calling an iterative solver
          1591 MiB given to the printing process from OS
             0 MiB allocation reported by mallinfo(arena+hblkhd)
          1176 MiB available memory on the node where the printing process lives
------------------
     ethr =  8.40E-11,  avg # of iterations =  2.0

     negative rho (up, down):  2.048E-04 0.000E+00

     total cpu time spent up to now is     1311.2 secs

     total energy              =    -187.73277097 Ry
     estimated scf accuracy    <          6.4E-09 Ry

     iteration # 15     ecut=    60.00 Ry     beta= 0.70
     Davidson diagonalization with overlap

---- Real-time Memory Report at c_bands before calling an iterative solver
          1591 MiB given to the printing process from OS
             0 MiB allocation reported by mallinfo(arena+hblkhd)
          1170 MiB available memory on the node where the printing process lives
------------------
     ethr =  2.48E-11,  avg # of iterations =  3.1

     negative rho (up, down):  2.048E-04 0.000E+00

     total cpu time spent up to now is     1317.1 secs

     total energy              =    -187.73277101 Ry
     estimated scf accuracy    <       0.00000009 Ry

     iteration # 16     ecut=    60.00 Ry     beta= 0.70
     Davidson diagonalization with overlap

---- Real-time Memory Report at c_bands before calling an iterative solver
          1591 MiB given to the printing process from OS
             0 MiB allocation reported by mallinfo(arena+hblkhd)
          1174 MiB available memory on the node where the printing process lives
------------------
     ethr =  2.48E-11,  avg # of iterations =  3.0

     negative rho (up, down):  2.048E-04 0.000E+00

     total cpu time spent up to now is     1323.1 secs

     total energy              =    -187.73277099 Ry
     estimated scf accuracy    <       0.00000029 Ry

     iteration # 17     ecut=    60.00 Ry     beta= 0.70
     Davidson diagonalization with overlap

---- Real-time Memory Report at c_bands before calling an iterative solver
          1591 MiB given to the printing process from OS
             0 MiB allocation reported by mallinfo(arena+hblkhd)
          1176 MiB available memory on the node where the printing process lives
------------------
     ethr =  2.48E-11,  avg # of iterations =  2.0

     negative rho (up, down):  2.048E-04 0.000E+00

     total cpu time spent up to now is     1328.8 secs

     total energy              =    -187.73277099 Ry
     estimated scf accuracy    <       0.00000018 Ry

     iteration # 18     ecut=    60.00 Ry     beta= 0.70
     Davidson diagonalization with overlap

---- Real-time Memory Report at c_bands before calling an iterative solver
          1591 MiB given to the printing process from OS
             0 MiB allocation reported by mallinfo(arena+hblkhd)
          1147 MiB available memory on the node where the printing process lives
------------------
     ethr =  2.48E-11,  avg # of iterations =  1.0

     negative rho (up, down):  2.049E-04 0.000E+00

     total cpu time spent up to now is     1333.9 secs

     total energy              =    -187.73277100 Ry
     estimated scf accuracy    <       0.00000018 Ry

     iteration # 19     ecut=    60.00 Ry     beta= 0.70
     Davidson diagonalization with overlap

---- Real-time Memory Report at c_bands before calling an iterative solver
          1591 MiB given to the printing process from OS
             0 MiB allocation reported by mallinfo(arena+hblkhd)
          1157 MiB available memory on the node where the printing process lives
------------------
     ethr =  2.48E-11,  avg # of iterations =  1.0

     negative rho (up, down):  2.049E-04 0.000E+00

     total cpu time spent up to now is     1338.9 secs

     total energy              =    -187.73277101 Ry
     estimated scf accuracy    <       0.00000021 Ry

     iteration # 20     ecut=    60.00 Ry     beta= 0.70
     Davidson diagonalization with overlap

---- Real-time Memory Report at c_bands before calling an iterative solver
          1591 MiB given to the printing process from OS
             0 MiB allocation reported by mallinfo(arena+hblkhd)
          1160 MiB available memory on the node where the printing process lives
------------------
     ethr =  2.48E-11,  avg # of iterations =  2.0

     negative rho (up, down):  2.047E-04 0.000E+00

     total cpu time spent up to now is     1344.4 secs

     total energy              =    -187.73277092 Ry
     estimated scf accuracy    <       0.00000030 Ry

     iteration # 21     ecut=    60.00 Ry     beta= 0.70
     Davidson diagonalization with overlap

---- Real-time Memory Report at c_bands before calling an iterative solver
          1591 MiB given to the printing process from OS
             0 MiB allocation reported by mallinfo(arena+hblkhd)
          1151 MiB available memory on the node where the printing process lives
------------------
     ethr =  2.48E-11,  avg # of iterations =  4.0

     negative rho (up, down):  2.046E-04 0.000E+00

     total cpu time spent up to now is     1350.9 secs

     total energy              =    -187.73277096 Ry
     estimated scf accuracy    <          3.6E-10 Ry

     iteration # 22     ecut=    60.00 Ry     beta= 0.70
     Davidson diagonalization with overlap

---- Real-time Memory Report at c_bands before calling an iterative solver
          1591 MiB given to the printing process from OS
             0 MiB allocation reported by mallinfo(arena+hblkhd)
          1155 MiB available memory on the node where the printing process lives
------------------
     ethr =  1.37E-12,  avg # of iterations =  3.1

     negative rho (up, down):  2.046E-04 0.000E+00

     total cpu time spent up to now is     1356.7 secs

     total energy              =    -187.73277096 Ry
     estimated scf accuracy    <          3.0E-10 Ry

     iteration # 23     ecut=    60.00 Ry     beta= 0.70
     Davidson diagonalization with overlap

---- Real-time Memory Report at c_bands before calling an iterative solver
          1591 MiB given to the printing process from OS
             0 MiB allocation reported by mallinfo(arena+hblkhd)
          1148 MiB available memory on the node where the printing process lives
------------------
     ethr =  1.14E-12,  avg # of iterations =  1.7

     negative rho (up, down):  2.046E-04 0.000E+00

     total cpu time spent up to now is     1361.8 secs

     End of self-consistent calculation

          k = 0.0000 0.0000 0.0000 (  8091 PWs)   bands (ev):

   -61.1068 -35.2384 -35.0338 -35.0338 -14.2924 -12.9877  -5.8102  -2.8184
    -2.8184  -1.9801  -1.7149  -1.7149  -0.2109   2.5467   2.5467   2.7959
     2.7959

     occupation numbers 
     1.0000   1.0000   1.0000   1.0000   1.0000   1.0000   1.0000   1.0000
     1.0000   1.0000   1.0000   1.0000   1.0000   0.0000   0.0000   0.0000
     0.0000

          k =-0.0000 0.1283 0.0000 (  8095 PWs)   bands (ev):

   -61.1024 -35.2298 -35.0781 -35.0439 -14.1127 -12.9138  -5.6087  -3.2032
    -2.6830  -2.6314  -1.9899  -1.3038  -0.3141   2.3605   2.3622   2.6004
     2.8483

     occupation numbers 
     1.0000   1.0000   1.0000   1.0000   1.0000   1.0000   1.0000   1.0000
     1.0000   1.0000   1.0000   1.0000   1.0000   0.0000   0.0000   0.0000
     0.0000

          k =-0.0000 0.2567 0.0000 (  8071 PWs)   bands (ev):

   -61.0914 -35.2078 -35.1889 -35.0694 -13.6246 -12.7140  -5.2198  -3.9042
    -3.5543  -2.5503  -2.1431  -1.4299  -0.7785   1.9637   2.2239   2.5430
     3.4290

     occupation numbers 
     1.0000   1.0000   1.0000   1.0000   1.0000   1.0000   1.0000   1.0000
     1.0000   1.0000   1.0000   1.0000   1.0000   0.0000   0.0000   0.0000
     0.0000

          k =-0.0000 0.3850 0.0000 (  8069 PWs)   bands (ev):

   -61.0789 -35.3125 -35.1826 -35.0981 -12.9894 -12.4592  -5.4336  -4.3748
    -4.1021  -3.0519  -1.8275  -1.5791  -1.1742   1.9993   2.1258   3.1745
     3.8716

     occupation numbers 
     1.0000   1.0000   1.0000   1.0000   1.0000   1.0000   1.0000   1.0000
     1.0000   1.0000   1.0000   1.0000   1.0000   0.0000   0.0000   0.0000
     0.0000

          k =-0.0000 0.5133 0.0000 (  8038 PWs)   bands (ev):

   -61.0707 -35.3919 -35.1662 -35.1168 -12.5030 -12.2721  -5.8921  -4.9057
    -4.2305  -3.3316  -2.0497  -1.2331  -0.9215   2.0111   2.4665   3.5994
     4.0698

     occupation numbers 
     1.0000   1.0000   1.0000   1.0000   1.0000   1.0000   1.0000   1.0000
     1.0000   1.0000   1.0000   1.0000   1.0000   0.0000   0.0000   0.0000
     0.0000

          k = 0.1111 0.1925 0.0000 (  8097 PWs)   bands (ev):

   -61.0947 -35.2144 -35.1517 -35.0656 -13.7781 -12.7762  -5.2910  -3.7263
    -3.2109  -2.6542  -2.3304  -1.1364  -0.6075   1.9708   2.2539   2.3189
     3.3769

     occupation numbers 
     1.0000   1.0000   1.0000   1.0000   1.0000   1.0000   1.0000   1.0000
     1.0000   1.0000   1.0000   1.0000   1.0000   0.0000   0.0000   0.0000
     0.0000

          k = 0.1111 0.3208 0.0000 (  8086 PWs)   bands (ev):

   -61.0830 -35.2597 -35.1909 -35.1018 -13.2107 -12.5437  -5.1722  -4.0417
    -3.9909  -3.2531  -2.0740  -1.3768  -1.0218   1.7752   2.2372   2.5997
     3.9230

     occupation numbers 
     1.0000   1.0000   1.0000   1.0000   1.0000   1.0000   1.0000   1.0000
     1.0000   1.0000   1.0000   1.0000   1.0000   0.0000   0.0000   0.0000
     0.0000

          k = 0.1111 0.4492 0.0000 (  8045 PWs)   bands (ev):

   -61.0726 -35.3527 -35.1700 -35.1340 -12.6317 -12.3108  -5.5730  -4.8006
    -4.0705  -3.3825  -2.0434  -1.8374  -0.8690   1.9938   2.3738   3.2145
     4.0839

     occupation numbers 
     1.0000   1.0000   1.0000   1.0000   1.0000   1.0000   1.0000   1.0000
     1.0000   1.0000   1.0000   1.0000   1.0000   0.0000   0.0000   0.0000
     0.0000

          k = 0.1111 0.5775 0.0000 (  8030 PWs)   bands (ev):

   -61.0685 -35.3891 -35.1618 -35.1467 -12.3725 -12.2093  -5.7861  -5.1206
    -4.2073  -3.3745  -2.0593  -1.9592  -0.6201   2.0244   2.6421   3.6108
     3.9300

     occupation numbers 
     1.0000   1.0000   1.0000   1.0000   1.0000   1.0000   1.0000   1.0000
     1.0000   1.0000   1.0000   1.0000   1.0000   0.0000   0.0000   0.0000
     0.0000

          k = 0.2223 0.3850 0.0000 (  8055 PWs)   bands (ev):

   -61.0733 -35.3195 -35.1716 -35.1590 -12.6850 -12.3222  -5.3033  -4.7484
    -3.8485  -3.5107  -2.7246  -1.6065  -0.9013   1.9399   2.3837   2.7877
     4.2696

     occupation numbers 
     1.0000   1.0000   1.0000   1.0000   1.0000   1.0000   1.0000   1.0000
     1.0000   1.0000   1.0000   1.0000   1.0000   0.0000   0.0000   0.0000
     0.0000

          k = 0.2223 0.5133 0.0000 (  8041 PWs)   bands (ev):

   -61.0671 -35.3482 -35.2063 -35.1590 -12.2998 -12.1560  -5.3479  -5.3154
    -4.0058  -3.3077  -3.1441  -2.0738  -0.5226   1.8192   2.9036   3.0055
     4.3989

     occupation numbers 
     1.0000   1.0000   1.0000   1.0000   1.0000   1.0000   1.0000   1.0000
     1.0000   1.0000   1.0000   1.0000   1.0000   0.0000   0.0000   0.0000
     0.0000

          k = 0.3334 0.5775 0.0000 (  7992 PWs)   bands (ev):

   -61.0649 -35.3120 -35.2694 -35.1546 -12.1650 -12.0869  -5.5994  -4.7845
    -4.2663  -3.7584  -3.0744  -2.3571  -0.2289   1.4509   2.8528   3.3231
     4.6434

     occupation numbers 
     1.0000   1.0000   1.0000   1.0000   1.0000   1.0000   1.0000   1.0000
     1.0000   1.0000   1.0000   1.0000   1.0000   0.0000   0.0000   0.0000
     0.0000

     the Fermi energy is     0.6547 ev

!    total energy              =    -187.73277096 Ry
     estimated scf accuracy    <          7.5E-11 Ry
     smearing contrib. (-TS)   =      -0.00000000 Ry
     internal energy E=F+TS    =    -187.73277096 Ry

     The total energy is F=E-TS. E is the sum of the following terms:
     one-electron contribution =    -899.24500886 Ry
     hartree contribution      =     450.73779229 Ry
     xc contribution           =     -36.27104828 Ry
     ewald contribution        =     297.04549388 Ry

     convergence has been achieved in  23 iterations

     negative rho (up, down):  2.046E-04 0.000E+00

     Forces acting on atoms (cartesian axes, Ry/au):

     atom    1 type  1   force =     0.00000000   -0.00000000    0.00000000
     atom    2 type  2   force =    -0.00000000    0.00000000   -0.00003263
     atom    3 type  2   force =     0.00000000    0.00000000    0.00003263
     The non-local contrib.  to forces
     atom    1 type  1   force =    -0.00000000    0.00000000    0.00000000
     atom    2 type  2   force =    -0.00000000    0.00000000   -0.27863108
     atom    3 type  2   force =    -0.00000000    0.00000000    0.27863108
     The ionic contribution  to forces
     atom    1 type  1   force =    -0.00000000    0.00000005    0.00000000
     atom    2 type  2   force =     0.00000004   -0.00000002   34.37325904
     atom    3 type  2   force =    -0.00000004   -0.00000002  -34.37325904
     The local contribution  to forces
     atom    1 type  1   force =     0.00000000    0.00000000   -0.00000000
     atom    2 type  2   force =     0.00000012   -0.00000007  -34.10896870
     atom    3 type  2   force =    -0.00000012   -0.00000007   34.10896870
     The core correction contribution to forces
     atom    1 type  1   force =    -0.00000000   -0.00000000   -0.00000000
     atom    2 type  2   force =    -0.00000001    0.00000001    0.01428774
     atom    3 type  2   force =     0.00000001    0.00000001   -0.01428774
     The Hubbard contrib.    to forces
     atom    1 type  1   force =     0.00000000    0.00000000    0.00000000
     atom    2 type  2   force =     0.00000000    0.00000000    0.00000000
     atom    3 type  2   force =     0.00000000    0.00000000    0.00000000
     The SCF correction term to forces
     atom    1 type  1   force =     0.00000000    0.00000000    0.00000000
     atom    2 type  2   force =    -0.00000000   -0.00000000    0.00002037
     atom    3 type  2   force =     0.00000000   -0.00000000   -0.00002037

     Total force =     0.000046     Total SCF correction =     0.000029
     SCF correction compared to forces is large: reduce conv_thr to get better values


     Computing stress (Cartesian axis) and pressure


     negative rho (up, down):  2.046E-04 0.000E+00
          total   stress  (Ry/bohr**3)                   (kbar)     P=       -0.01
   0.00000000  -0.00000000   0.00000000            0.00       -0.00        0.00
   0.00000000   0.00000000  -0.00000000            0.00        0.00       -0.00
   0.00000000  -0.00000000  -0.00000014            0.00       -0.00       -0.02

     kinetic stress (kbar)   4239.78     -0.00      0.00
                               -0.00   4239.78      0.00
                               -0.00      0.00   4291.45

     local   stress (kbar)-126943.03      0.00     -0.00
                                0.00-126943.03      0.00
                               -0.00      0.00 124572.81

     nonloc. stress (kbar)   4466.30     -0.00      0.00
                               -0.00   4466.30      0.00
                                0.00      0.00   4479.29

     hartree stress (kbar)  62203.50     -0.00     -0.00
                               -0.00  62203.50      0.00
                               -0.00      0.00 -59816.28

     exc-cor stress (kbar)    318.83     -0.00      0.00
                               -0.00    318.83     -0.00
                                0.00     -0.00    317.95

     corecor stress (kbar)  -1660.28      0.00     -0.00
                                0.00  -1660.28      0.00
                               -0.00      0.00  -1662.06

     ewald   stress (kbar)  57374.90     -0.00      0.00
                               -0.00  57374.90     -0.00
                                0.00     -0.00 -72183.19

     hubbard stress (kbar)      0.00      0.00      0.00
                                0.00      0.00      0.00
                                0.00      0.00      0.00

     DFT-D   stress (kbar)      0.00      0.00      0.00
                                0.00      0.00      0.00
                                0.00      0.00      0.00

     XDM     stress (kbar)      0.00      0.00      0.00
                                0.00      0.00      0.00
                                0.00      0.00      0.00

     dft-nl  stress (kbar)      0.00      0.00      0.00
                                0.00      0.00      0.00
                                0.00      0.00      0.00

     TS-vdW  stress (kbar)      0.00      0.00      0.00
                                0.00      0.00      0.00
                                0.00      0.00      0.00

     MDB     stress (kbar)      0.00      0.00      0.00
                                0.00      0.00      0.00
                                0.00      0.00      0.00

     3D-RISM stress (kbar)      0.00      0.00      0.00
                                0.00      0.00      0.00
                                0.00      0.00      0.00

     Energy error            =      1.8E-07 Ry
     Gradient error          =      3.3E-05 Ry/Bohr
     Cell gradient error     =      4.8E-04 kbar

     bfgs converged in   8 scf cycles and   7 bfgs steps
     (criteria: energy <  1.0E-05 Ry, force <  1.0E-04 Ry/Bohr, cell <  1.0E-01 kbar)

     End of BFGS Geometry Optimization

     Final enthalpy           =    -187.7327709595 Ry

     File ./tmp/pwscf.bfgs deleted, as requested
Begin final coordinates
     new unit-cell volume =   1026.55324 a.u.^3 (   152.11950 Ang^3 )
     density =      1.74735 g/cm^3

CELL_PARAMETERS (angstrom)
   3.183246068   0.000000000   0.000000000
  -1.591623034   2.756771961   0.000000000
   0.000000000   0.000000000  17.334599950

ATOMIC_POSITIONS (crystal)
Mo            0.0000000000        0.0000000000        0.5000000000
S             0.3333333300        0.6666666700        0.5901283080
S             0.3333333400        0.6666666700        0.4098716920
End final coordinates



     Writing config-only to output data dir ./tmp/pwscf.save/

     Final scf calculation at the relaxed structure.
     The G-vectors are recalculated for the final unit cell
     Results may differ from those at the preceding step.

     G-vector sticks info
     --------------------
     sticks:   dense  smooth     PW     G-vecs:    dense   smooth      PW
     Sum        1507     595    169               254925    64451   10253

     Using Slab Decomposition


     Title: 
     MoS2 Monolayer vc-relax                                                    


     bravais-lattice index     =            0
     lattice parameter (alat)  =       6.0171  a.u.
     unit-cell volume          =    1026.5532 (a.u.)^3
     number of atoms/cell      =            3
     number of atomic types    =            2
     number of electrons       =        26.00
     number of Kohn-Sham states=           17
     kinetic-energy cutoff     =      60.0000  Ry
     charge density cutoff     =     600.0000  Ry
     scf convergence threshold =      1.0E-10
     mixing beta               =       0.7000
     number of iterations used =            8  plain     mixing
     press convergence thresh. =      1.0E-01
     Exchange-correlation=  SLA  PW   PBX  PBC
                           (   1   4   3   4   0   0   0)

     celldm(1)=   6.017126  celldm(2)=   0.000000  celldm(3)=   0.000000
     celldm(4)=   0.000000  celldm(5)=   0.000000  celldm(6)=   0.000000

     crystal axes: (cart. coord. in units of alat)
               a(1) = (   0.999724   0.000000   0.000000 )  
               a(2) = (  -0.499862   0.865786   0.000000 )  
               a(3) = (   0.000000   0.000000   5.444068 )  

     reciprocal axes: (cart. coord. in units 2 pi/alat)
               b(1) = (  1.000276  0.577510 -0.000000 )  
               b(2) = ( -0.000000  1.155020  0.000000 )  
               b(3) = (  0.000000 -0.000000  0.183686 )  


     PseudoPot. # 1 for Mo read from file:
     ./mo_pbe_v1.uspp.F.UPF
     MD5 check sum: 30c4dcd161f5d35cd49bb5239c51a633
     Pseudo is Ultrasoft + core correction, Zval = 14.0
     Generated by new atomic code, or converted to UPF format
     Using radial grid of  889 points,  6 beta functions with: 
                l(1) =   0
                l(2) =   0
                l(3) =   1
                l(4) =   1
                l(5) =   2
                l(6) =   2
     Q(r) pseudized with  6 coefficients,  rinner =    1.000   1.000   1.000
                                                       1.000   1.000

     PseudoPot. # 2 for S  read from file:
     ./s_pbe_v1.4.uspp.F.UPF
     MD5 check sum: 88d86576ff6df21479756cfb9bdac1df
     Pseudo is Ultrasoft + core correction, Zval =  6.0
     Generated by new atomic code, or converted to UPF format
     Using radial grid of  907 points,  6 beta functions with: 
                l(1) =   0
                l(2) =   0
                l(3) =   1
                l(4) =   1
                l(5) =   2
                l(6) =   2
     Q(r) pseudized with  8 coefficients,  rinner =    1.300   1.300   1.300
                                                       1.300   1.300

     atomic species   valence    mass     pseudopotential
        Mo            14.00    95.94000     Mo( 1.00)
        S              6.00    32.06600     S ( 1.00)

     12 Sym. Ops. (no inversion) found


                                    s                        frac. trans.

      isym =  1     identity                                     

 cryst.   s( 1) = (     1          0          0      )
                  (     0          1          0      )
                  (     0          0          1      )

 cart.    s( 1) = (  1.0000000  0.0000000  0.0000000 )
                  (  0.0000000  1.0000000  0.0000000 )
                  (  0.0000000  0.0000000  1.0000000 )


      isym =  2     180 deg rotation - cart. axis [0,1,0]        

 cryst.   s( 2) = (    -1          0          0      )
                  (     1          1          0      )
                  (     0          0         -1      )

 cart.    s( 2) = ( -1.0000000  0.0000000  0.0000000 )
                  (  0.0000000  1.0000000  0.0000000 )
                  (  0.0000000  0.0000000 -1.0000000 )


      isym =  3     120 deg rotation - cryst. axis [0,0,1]       

 cryst.   s( 3) = (     0          1          0      )
                  (    -1         -1          0      )
                  (     0          0          1      )

 cart.    s( 3) = ( -0.5000000 -0.8660254  0.0000000 )
                  (  0.8660254 -0.5000000  0.0000000 )
                  (  0.0000000  0.0000000  1.0000000 )


      isym =  4     120 deg rotation - cryst. axis [0,0,-1]      

 cryst.   s( 4) = (    -1         -1          0      )
                  (     1          0          0      )
                  (     0          0          1      )

 cart.    s( 4) = ( -0.5000000  0.8660254  0.0000000 )
                  ( -0.8660254 -0.5000000  0.0000000 )
                  (  0.0000000  0.0000000  1.0000000 )


      isym =  5     180 deg rotation - cryst. axis [1,-1,0]      

 cryst.   s( 5) = (     0         -1          0      )
                  (    -1          0          0      )
                  (     0          0         -1      )

 cart.    s( 5) = (  0.5000000 -0.8660254  0.0000000 )
                  ( -0.8660254 -0.5000000  0.0000000 )
                  (  0.0000000  0.0000000 -1.0000000 )


      isym =  6     180 deg rotation - cryst. axis [2,1,0]       

 cryst.   s( 6) = (     1          1          0      )
                  (     0         -1          0      )
                  (     0          0         -1      )

 cart.    s( 6) = (  0.5000000  0.8660254  0.0000000 )
                  (  0.8660254 -0.5000000  0.0000000 )
                  (  0.0000000  0.0000000 -1.0000000 )


      isym =  7     inv. 180 deg rotation - cart. axis [0,0,1]   

 cryst.   s( 7) = (     1          0          0      )
                  (     0          1          0      )
                  (     0          0         -1      )

 cart.    s( 7) = (  1.0000000  0.0000000  0.0000000 )
                  (  0.0000000  1.0000000  0.0000000 )
                  (  0.0000000  0.0000000 -1.0000000 )


      isym =  8     inv. 180 deg rotation - cart. axis [1,0,0]   

 cryst.   s( 8) = (    -1          0          0      )
                  (     1          1          0      )
                  (     0          0          1      )

 cart.    s( 8) = ( -1.0000000  0.0000000  0.0000000 )
                  (  0.0000000  1.0000000  0.0000000 )
                  (  0.0000000  0.0000000  1.0000000 )


      isym =  9     inv.  60 deg rotation - cryst. axis [0,0,1]  

 cryst.   s( 9) = (    -1         -1          0      )
                  (     1          0          0      )
                  (     0          0         -1      )

 cart.    s( 9) = ( -0.5000000  0.8660254  0.0000000 )
                  ( -0.8660254 -0.5000000  0.0000000 )
                  (  0.0000000  0.0000000 -1.0000000 )


      isym = 10     inv.  60 deg rotation - cryst. axis [0,0,-1] 

 cryst.   s(10) = (     0          1          0      )
                  (    -1         -1          0      )
                  (     0          0         -1      )

 cart.    s(10) = ( -0.5000000 -0.8660254  0.0000000 )
                  (  0.8660254 -0.5000000  0.0000000 )
                  (  0.0000000  0.0000000 -1.0000000 )


      isym = 11     inv. 180 deg rotation - cryst. axis [0,1,0]  

 cryst.   s(11) = (     1          1          0      )
                  (     0         -1          0      )
                  (     0          0          1      )

 cart.    s(11) = (  0.5000000  0.8660254  0.0000000 )
                  (  0.8660254 -0.5000000  0.0000000 )
                  (  0.0000000  0.0000000  1.0000000 )


      isym = 12     inv. 180 deg rotation - cryst. axis [1,1,0]  

 cryst.   s(12) = (     0         -1          0      )
                  (    -1          0          0      )
                  (     0          0          1      )

 cart.    s(12) = (  0.5000000 -0.8660254  0.0000000 )
                  ( -0.8660254 -0.5000000  0.0000000 )
                  (  0.0000000  0.0000000  1.0000000 )


   Cartesian axes

     site n.     atom                  positions (alat units)
         1           Mo  tau(   1) = (   0.0000000   0.0000000   2.7220342  )
         2           S   tau(   2) = (  -0.0000000   0.5771907   3.2126988  )
         3           S   tau(   3) = (   0.0000000   0.5771907   2.2313695  )

   Crystallographic axes

     site n.     atom                  positions (cryst. coord.)
         1           Mo  tau(   1) = (  0.0000000  0.0000000  0.5000000  )
         2           S   tau(   2) = (  0.3333333  0.6666667  0.5901283  )
         3           S   tau(   3) = (  0.3333333  0.6666667  0.4098717  )

     number of k points=    12  Gaussian smearing, width (Ry)=  0.0100
                       cart. coord. in units 2pi/alat
        k(    1) = (   0.0000000   0.0000000   0.0000000), wk =   0.0246914
        k(    2) = (  -0.0000000   0.1283355   0.0000000), wk =   0.1481481
        k(    3) = (  -0.0000000   0.2566711   0.0000000), wk =   0.1481481
        k(    4) = (  -0.0000000   0.3850066   0.0000000), wk =   0.1481481
        k(    5) = (  -0.0000000   0.5133421   0.0000000), wk =   0.1481481
        k(    6) = (   0.1111418   0.1925033   0.0000000), wk =   0.1481481
        k(    7) = (   0.1111418   0.3208388   0.0000000), wk =   0.2962963
        k(    8) = (   0.1111418   0.4491743   0.0000000), wk =   0.2962963
        k(    9) = (   0.1111418   0.5775099   0.0000000), wk =   0.1481481
        k(   10) = (   0.2222837   0.3850066   0.0000000), wk =   0.1481481
        k(   11) = (   0.2222837   0.5133421   0.0000000), wk =   0.2962963
        k(   12) = (   0.3334255   0.5775099   0.0000000), wk =   0.0493827

                       cryst. coord.
        k(    1) = (   0.0000000   0.0000000   0.0000000), wk =   0.0246914
        k(    2) = (   0.0000000   0.1111111   0.0000000), wk =   0.1481481
        k(    3) = (   0.0000000   0.2222222   0.0000000), wk =   0.1481481
        k(    4) = (  -0.0000000   0.3333333   0.0000000), wk =   0.1481481
        k(    5) = (   0.0000000   0.4444444   0.0000000), wk =   0.1481481
        k(    6) = (   0.1111111   0.1111111   0.0000000), wk =   0.1481481
        k(    7) = (   0.1111111   0.2222222   0.0000000), wk =   0.2962963
        k(    8) = (   0.1111111   0.3333333   0.0000000), wk =   0.2962963
        k(    9) = (   0.1111111   0.4444444   0.0000000), wk =   0.1481481
        k(   10) = (   0.2222222   0.2222222   0.0000000), wk =   0.1481481
        k(   11) = (   0.2222222   0.3333333   0.0000000), wk =   0.2962963
        k(   12) = (   0.3333333   0.3333333   0.0000000), wk =   0.0493827

     Dense  grid:   254925 G-vectors     FFT dimensions: (  48,  48, 256)

     Smooth grid:    64451 G-vectors     FFT dimensions: (  30,  30, 162)

     Dynamical RAM for                 wfc:       2.09 MB

     Dynamical RAM for     wfc (w. buffer):      27.17 MB

     Dynamical RAM for           str. fact:       7.78 MB

     Dynamical RAM for           local pot:       3.89 MB

     Dynamical RAM for          nlocal pot:       6.64 MB

     Dynamical RAM for                qrad:       7.86 MB

     Dynamical RAM for          rho,v,vnew:      25.17 MB

     Dynamical RAM for               rhoin:       8.39 MB

     Dynamical RAM for            rho*nmix:      62.24 MB

     Dynamical RAM for           G-vectors:      15.08 MB

     Dynamical RAM for          h,s,v(r/c):       0.05 MB

     Dynamical RAM for          <psi|beta>:       0.01 MB

     Dynamical RAM for                 psi:       4.18 MB

     Dynamical RAM for                hpsi:       4.18 MB

     Dynamical RAM for                spsi:       4.18 MB

     Dynamical RAM for      wfcinit/wfcrot:       5.17 MB

     Dynamical RAM for           addusdens:     731.29 MB

     Dynamical RAM for          addusforce:     741.02 MB

     Dynamical RAM for         addusstress:     781.86 MB

     Estimated static dynamical RAM per process >     136.15 MB

     Estimated max dynamical RAM per process >     980.24 MB

     Initial potential from superposition of free atoms

     starting charge      25.9989, renormalised to      26.0000

     negative rho (up, down):  4.559E-05 0.000E+00
     Starting wfcs are   21 randomized atomic wfcs

     total cpu time spent up to now is     1439.1 secs

     Self-consistent Calculation

     iteration #  1     ecut=    60.00 Ry     beta= 0.70
     Davidson diagonalization with overlap

---- Real-time Memory Report at c_bands before calling an iterative solver
          1591 MiB given to the printing process from OS
             0 MiB allocation reported by mallinfo(arena+hblkhd)
          1232 MiB available memory on the node where the printing process lives
------------------
     ethr =  1.00E-06,  avg # of iterations = 12.2

     negative rho (up, down):  1.554E-04 0.000E+00

     total cpu time spent up to now is     1453.3 secs

     total energy              =    -187.68592156 Ry
     estimated scf accuracy    <       0.12014791 Ry

     iteration #  2     ecut=    60.00 Ry     beta= 0.70
     Davidson diagonalization with overlap

---- Real-time Memory Report at c_bands before calling an iterative solver
          1591 MiB given to the printing process from OS
             0 MiB allocation reported by mallinfo(arena+hblkhd)
          1176 MiB available memory on the node where the printing process lives
------------------
     ethr =  4.62E-04,  avg # of iterations =  3.0

     negative rho (up, down):  1.892E-04 0.000E+00

     total cpu time spent up to now is     1459.3 secs

     total energy              =    -187.66348541 Ry
     estimated scf accuracy    <       0.28262998 Ry

     iteration #  3     ecut=    60.00 Ry     beta= 0.70
     Davidson diagonalization with overlap

---- Real-time Memory Report at c_bands before calling an iterative solver
          1591 MiB given to the printing process from OS
             0 MiB allocation reported by mallinfo(arena+hblkhd)
          1176 MiB available memory on the node where the printing process lives
------------------
     ethr =  4.62E-04,  avg # of iterations =  2.6

     negative rho (up, down):  2.040E-04 0.000E+00

     total cpu time spent up to now is     1465.0 secs

     total energy              =    -187.71444883 Ry
     estimated scf accuracy    <       0.13275192 Ry

     iteration #  4     ecut=    60.00 Ry     beta= 0.70
     Davidson diagonalization with overlap

---- Real-time Memory Report at c_bands before calling an iterative solver
          1591 MiB given to the printing process from OS
             0 MiB allocation reported by mallinfo(arena+hblkhd)
          1169 MiB available memory on the node where the printing process lives
------------------
     ethr =  4.62E-04,  avg # of iterations =  1.5

     negative rho (up, down):  2.039E-04 0.000E+00

     total cpu time spent up to now is     1470.2 secs

     total energy              =    -187.73225477 Ry
     estimated scf accuracy    <       0.00033411 Ry

     iteration #  5     ecut=    60.00 Ry     beta= 0.70
     Davidson diagonalization with overlap

---- Real-time Memory Report at c_bands before calling an iterative solver
          1591 MiB given to the printing process from OS
             0 MiB allocation reported by mallinfo(arena+hblkhd)
          1170 MiB available memory on the node where the printing process lives
------------------
     ethr =  1.29E-06,  avg # of iterations =  5.2

     negative rho (up, down):  2.042E-04 0.000E+00

     total cpu time spent up to now is     1477.9 secs

     total energy              =    -187.73275448 Ry
     estimated scf accuracy    <       0.00031291 Ry

     iteration #  6     ecut=    60.00 Ry     beta= 0.70
     Davidson diagonalization with overlap

---- Real-time Memory Report at c_bands before calling an iterative solver
          1591 MiB given to the printing process from OS
             0 MiB allocation reported by mallinfo(arena+hblkhd)
          1177 MiB available memory on the node where the printing process lives
------------------
     ethr =  1.20E-06,  avg # of iterations =  1.2

     negative rho (up, down):  2.045E-04 0.000E+00

     total cpu time spent up to now is     1483.0 secs

     total energy              =    -187.73275952 Ry
     estimated scf accuracy    <       0.00003855 Ry

     iteration #  7     ecut=    60.00 Ry     beta= 0.70
     Davidson diagonalization with overlap

---- Real-time Memory Report at c_bands before calling an iterative solver
          1591 MiB given to the printing process from OS
             0 MiB allocation reported by mallinfo(arena+hblkhd)
          1173 MiB available memory on the node where the printing process lives
------------------
     ethr =  1.48E-07,  avg # of iterations =  2.1

     negative rho (up, down):  2.046E-04 0.000E+00

     total cpu time spent up to now is     1488.7 secs

     total energy              =    -187.73277059 Ry
     estimated scf accuracy    <       0.00000095 Ry

     iteration #  8     ecut=    60.00 Ry     beta= 0.70
     Davidson diagonalization with overlap

---- Real-time Memory Report at c_bands before calling an iterative solver
          1591 MiB given to the printing process from OS
             0 MiB allocation reported by mallinfo(arena+hblkhd)
          1167 MiB available memory on the node where the printing process lives
------------------
     ethr =  3.66E-09,  avg # of iterations =  3.8

     negative rho (up, down):  2.046E-04 0.000E+00

     total cpu time spent up to now is     1494.8 secs

     total energy              =    -187.73277074 Ry
     estimated scf accuracy    <       0.00000039 Ry

     iteration #  9     ecut=    60.00 Ry     beta= 0.70
     Davidson diagonalization with overlap

---- Real-time Memory Report at c_bands before calling an iterative solver
          1591 MiB given to the printing process from OS
             0 MiB allocation reported by mallinfo(arena+hblkhd)
          1165 MiB available memory on the node where the printing process lives
------------------
     ethr =  1.48E-09,  avg # of iterations =  2.0

     negative rho (up, down):  2.046E-04 0.000E+00

     total cpu time spent up to now is     1500.6 secs

     total energy              =    -187.73277082 Ry
     estimated scf accuracy    <          3.6E-09 Ry

     iteration # 10     ecut=    60.00 Ry     beta= 0.70
     Davidson diagonalization with overlap

---- Real-time Memory Report at c_bands before calling an iterative solver
          1591 MiB given to the printing process from OS
             0 MiB allocation reported by mallinfo(arena+hblkhd)
          1159 MiB available memory on the node where the printing process lives
------------------
     ethr =  1.39E-11,  avg # of iterations =  6.5

     negative rho (up, down):  2.046E-04 0.000E+00

     total cpu time spent up to now is     1509.0 secs

     total energy              =    -187.73277083 Ry
     estimated scf accuracy    <          3.0E-09 Ry

     iteration # 11     ecut=    60.00 Ry     beta= 0.70
     Davidson diagonalization with overlap

---- Real-time Memory Report at c_bands before calling an iterative solver
          1591 MiB given to the printing process from OS
             0 MiB allocation reported by mallinfo(arena+hblkhd)
          1154 MiB available memory on the node where the printing process lives
------------------
     ethr =  1.14E-11,  avg # of iterations =  2.0

     negative rho (up, down):  2.046E-04 0.000E+00

     total cpu time spent up to now is     1514.6 secs

     total energy              =    -187.73277083 Ry
     estimated scf accuracy    <          2.4E-10 Ry

     iteration # 12     ecut=    60.00 Ry     beta= 0.70
     Davidson diagonalization with overlap

---- Real-time Memory Report at c_bands before calling an iterative solver
          1591 MiB given to the printing process from OS
             0 MiB allocation reported by mallinfo(arena+hblkhd)
          1147 MiB available memory on the node where the printing process lives
------------------
     ethr =  9.22E-13,  avg # of iterations =  3.4

     negative rho (up, down):  2.046E-04 0.000E+00

     total cpu time spent up to now is     1520.7 secs

     End of self-consistent calculation

          k = 0.0000 0.0000 0.0000 (  8091 PWs)   bands (ev):

   -61.1067 -35.2384 -35.0338 -35.0338 -14.2923 -12.9877  -5.8102  -2.8184
    -2.8184  -1.9801  -1.7149  -1.7149  -0.2109   2.5467   2.5467   2.7959
     2.7959

     occupation numbers 
     1.0000   1.0000   1.0000   1.0000   1.0000   1.0000   1.0000   1.0000
     1.0000   1.0000   1.0000   1.0000   1.0000   0.0000   0.0000   0.0000
     0.0000

          k =-0.0000 0.1283 0.0000 (  8083 PWs)   bands (ev):

   -61.1024 -35.2297 -35.0781 -35.0439 -14.1126 -12.9138  -5.6086  -3.2032
    -2.6830  -2.6314  -1.9899  -1.3038  -0.3141   2.3606   2.3623   2.6005
     2.8484

     occupation numbers 
     1.0000   1.0000   1.0000   1.0000   1.0000   1.0000   1.0000   1.0000
     1.0000   1.0000   1.0000   1.0000   1.0000   0.0000   0.0000   0.0000
     0.0000

          k =-0.0000 0.2567 0.0000 (  8071 PWs)   bands (ev):

   -61.0914 -35.2077 -35.1888 -35.0693 -13.6246 -12.7139  -5.2197  -3.9041
    -3.5542  -2.5503  -2.1431  -1.4299  -0.7785   1.9637   2.2240   2.5431
     3.4290

     occupation numbers 
     1.0000   1.0000   1.0000   1.0000   1.0000   1.0000   1.0000   1.0000
     1.0000   1.0000   1.0000   1.0000   1.0000   0.0000   0.0000   0.0000
     0.0000

          k =-0.0000 0.3850 0.0000 (  8061 PWs)   bands (ev):

   -61.0788 -35.3125 -35.1826 -35.0981 -12.9893 -12.4591  -5.4336  -4.3748
    -4.1021  -3.0519  -1.8274  -1.5790  -1.1741   1.9993   2.1258   3.1745
     3.8716

     occupation numbers 
     1.0000   1.0000   1.0000   1.0000   1.0000   1.0000   1.0000   1.0000
     1.0000   1.0000   1.0000   1.0000   1.0000   0.0000   0.0000   0.0000
     0.0000

          k =-0.0000 0.5133 0.0000 (  8034 PWs)   bands (ev):

   -61.0706 -35.3919 -35.1661 -35.1168 -12.5029 -12.2721  -5.8920  -4.9057
    -4.2305  -3.3315  -2.0496  -1.2331  -0.9214   2.0112   2.4665   3.5995
     4.0698

     occupation numbers 
     1.0000   1.0000   1.0000   1.0000   1.0000   1.0000   1.0000   1.0000
     1.0000   1.0000   1.0000   1.0000   1.0000   0.0000   0.0000   0.0000
     0.0000

          k = 0.1111 0.1925 0.0000 (  8093 PWs)   bands (ev):

   -61.0947 -35.2144 -35.1517 -35.0656 -13.7781 -12.7762  -5.2909  -3.7263
    -3.2109  -2.6542  -2.3304  -1.1364  -0.6074   1.9708   2.2540   2.3190
     3.3769

     occupation numbers 
     1.0000   1.0000   1.0000   1.0000   1.0000   1.0000   1.0000   1.0000
     1.0000   1.0000   1.0000   1.0000   1.0000   0.0000   0.0000   0.0000
     0.0000

          k = 0.1111 0.3208 0.0000 (  8082 PWs)   bands (ev):

   -61.0829 -35.2597 -35.1908 -35.1018 -13.2107 -12.5437  -5.1722  -4.0417
    -3.9909  -3.2530  -2.0739  -1.3768  -1.0218   1.7752   2.2372   2.5997
     3.9230

     occupation numbers 
     1.0000   1.0000   1.0000   1.0000   1.0000   1.0000   1.0000   1.0000
     1.0000   1.0000   1.0000   1.0000   1.0000   0.0000   0.0000   0.0000
     0.0000

          k = 0.1111 0.4492 0.0000 (  8039 PWs)   bands (ev):

   -61.0726 -35.3527 -35.1700 -35.1340 -12.6316 -12.3108  -5.5730  -4.8006
    -4.0705  -3.3825  -2.0434  -1.8374  -0.8690   1.9939   2.3738   3.2145
     4.0839

     occupation numbers 
     1.0000   1.0000   1.0000   1.0000   1.0000   1.0000   1.0000   1.0000
     1.0000   1.0000   1.0000   1.0000   1.0000   0.0000   0.0000   0.0000
     0.0000

          k = 0.1111 0.5775 0.0000 (  8030 PWs)   bands (ev):

   -61.0685 -35.3891 -35.1618 -35.1466 -12.3725 -12.2092  -5.7860  -5.1206
    -4.2072  -3.3745  -2.0593  -1.9592  -0.6201   2.0244   2.6421   3.6108
     3.9300

     occupation numbers 
     1.0000   1.0000   1.0000   1.0000   1.0000   1.0000   1.0000   1.0000
     1.0000   1.0000   1.0000   1.0000   1.0000   0.0000   0.0000   0.0000
     0.0000

          k = 0.2223 0.3850 0.0000 (  8055 PWs)   bands (ev):

   -61.0733 -35.3194 -35.1716 -35.1590 -12.6850 -12.3221  -5.3033  -4.7484
    -3.8485  -3.5107  -2.7246  -1.6064  -0.9013   1.9399   2.3837   2.7877
     4.2696

     occupation numbers 
     1.0000   1.0000   1.0000   1.0000   1.0000   1.0000   1.0000   1.0000
     1.0000   1.0000   1.0000   1.0000   1.0000   0.0000   0.0000   0.0000
     0.0000

          k = 0.2223 0.5133 0.0000 (  8029 PWs)   bands (ev):

   -61.0670 -35.3482 -35.2063 -35.1590 -12.2997 -12.1560  -5.3479  -5.3154
    -4.0058  -3.3077  -3.1441  -2.0737  -0.5226   1.8192   2.9036   3.0055
     4.3990

     occupation numbers 
     1.0000   1.0000   1.0000   1.0000   1.0000   1.0000   1.0000   1.0000
     1.0000   1.0000   1.0000   1.0000   1.0000   0.0000   0.0000   0.0000
     0.0000

          k = 0.3334 0.5775 0.0000 (  7992 PWs)   bands (ev):

   -61.0648 -35.3120 -35.2694 -35.1546 -12.1649 -12.0869  -5.5993  -4.7845
    -4.2663  -3.7584  -3.0744  -2.3571  -0.2289   1.4509   2.8528   3.3232
     4.6435

     occupation numbers 
     1.0000   1.0000   1.0000   1.0000   1.0000   1.0000   1.0000   1.0000
     1.0000   1.0000   1.0000   1.0000   1.0000   0.0000   0.0000   0.0000
     0.0000

     the Fermi energy is     0.6547 ev

!    total energy              =    -187.73277083 Ry
     estimated scf accuracy    <          8.6E-11 Ry
     smearing contrib. (-TS)   =      -0.00000000 Ry
     internal energy E=F+TS    =    -187.73277083 Ry

     The total energy is F=E-TS. E is the sum of the following terms:
     one-electron contribution =    -899.24476645 Ry
     hartree contribution      =     450.73754852 Ry
     xc contribution           =     -36.27104678 Ry
     ewald contribution        =     297.04549388 Ry

     convergence has been achieved in  12 iterations

     negative rho (up, down):  2.046E-04 0.000E+00

     Forces acting on atoms (cartesian axes, Ry/au):

     atom    1 type  1   force =     0.00000000   -0.00000000    0.00000000
     atom    2 type  2   force =     0.00000000   -0.00000000   -0.00002916
     atom    3 type  2   force =    -0.00000000   -0.00000000    0.00002916
     The non-local contrib.  to forces
     atom    1 type  1   force =     0.00000000   -0.00000000    0.00000000
     atom    2 type  2   force =    -0.00000000    0.00000000   -0.27864371
     atom    3 type  2   force =    -0.00000000    0.00000000    0.27864371
     The ionic contribution  to forces
     atom    1 type  1   force =    -0.00000000    0.00000005    0.00000000
     atom    2 type  2   force =     0.00000004   -0.00000002   34.37325904
     atom    3 type  2   force =    -0.00000004   -0.00000002  -34.37325904
     The local contribution  to forces
     atom    1 type  1   force =     0.00000000    0.00000000   -0.00000000
     atom    2 type  2   force =     0.00000012   -0.00000007  -34.10891496
     atom    3 type  2   force =    -0.00000012   -0.00000007   34.10891496
     The core correction contribution to forces
     atom    1 type  1   force =    -0.00000000   -0.00000000    0.00000000
     atom    2 type  2   force =    -0.00000001    0.00000001    0.01428861
     atom    3 type  2   force =     0.00000001    0.00000001   -0.01428861
     The Hubbard contrib.    to forces
     atom    1 type  1   force =     0.00000000    0.00000000    0.00000000
     atom    2 type  2   force =     0.00000000    0.00000000    0.00000000
     atom    3 type  2   force =     0.00000000    0.00000000    0.00000000
     The SCF correction term to forces
     atom    1 type  1   force =    -0.00000000    0.00000000    0.00000000
     atom    2 type  2   force =     0.00000000   -0.00000000   -0.00001815
     atom    3 type  2   force =    -0.00000000   -0.00000000    0.00001815

     Total force =     0.000041     Total SCF correction =     0.000026
     SCF correction compared to forces is large: reduce conv_thr to get better values


     Computing stress (Cartesian axis) and pressure


     negative rho (up, down):  2.046E-04 0.000E+00
          total   stress  (Ry/bohr**3)                   (kbar)     P=       -0.01
  -0.00000004   0.00000000   0.00000000           -0.01        0.00        0.00
  -0.00000000  -0.00000004   0.00000000           -0.00       -0.01        0.00
   0.00000000   0.00000000  -0.00000022            0.00        0.00       -0.03

     kinetic stress (kbar)   4239.78     -0.00     -0.00
                               -0.00   4239.78      0.00
                               -0.00      0.00   4291.45

     local   stress (kbar)-126942.99      0.00     -0.00
                                0.00-126942.99     -0.00
                               -0.00     -0.00 124572.77

     nonloc. stress (kbar)   4466.29     -0.00      0.00
                               -0.00   4466.29     -0.00
                                0.00     -0.00   4479.28

     hartree stress (kbar)  62203.47     -0.00      0.00
                               -0.00  62203.47      0.00
                                0.00      0.00 -59816.24

     exc-cor stress (kbar)    318.83     -0.00      0.00
                               -0.00    318.83      0.00
                                0.00      0.00    317.95

     corecor stress (kbar)  -1660.28      0.00     -0.00
                                0.00  -1660.28      0.00
                               -0.00      0.00  -1662.06

     ewald   stress (kbar)  57374.90      0.00      0.00
                                0.00  57374.90     -0.00
                                0.00     -0.00 -72183.19

     hubbard stress (kbar)      0.00      0.00      0.00
                                0.00      0.00      0.00
                                0.00      0.00      0.00

     DFT-D   stress (kbar)      0.00      0.00      0.00
                                0.00      0.00      0.00
                                0.00      0.00      0.00

     XDM     stress (kbar)      0.00      0.00      0.00
                                0.00      0.00      0.00
                                0.00      0.00      0.00

     dft-nl  stress (kbar)      0.00      0.00      0.00
                                0.00      0.00      0.00
                                0.00      0.00      0.00

     TS-vdW  stress (kbar)      0.00      0.00      0.00
                                0.00      0.00      0.00
                                0.00      0.00      0.00

     MDB     stress (kbar)      0.00      0.00      0.00
                                0.00      0.00      0.00
                                0.00      0.00      0.00

     3D-RISM stress (kbar)      0.00      0.00      0.00
                                0.00      0.00      0.00
                                0.00      0.00      0.00


     Writing all to output data dir ./tmp/pwscf.save/

     init_run     :     42.69s CPU     45.61s WALL (       2 calls)
     electrons    :    668.17s CPU    834.00s WALL (       9 calls)
     update_pot   :    182.40s CPU    186.06s WALL (       7 calls)
     forces       :    127.15s CPU    136.85s WALL (       9 calls)
     stress       :    308.66s CPU    363.65s WALL (       9 calls)

     Called by init_run:
     wfcinit      :      2.27s CPU      2.53s WALL (       2 calls)
     wfcinit:atom :      0.05s CPU      0.05s WALL (      24 calls)
     wfcinit:wfcr :      2.00s CPU      2.23s WALL (      24 calls)
     potinit      :     16.64s CPU     17.04s WALL (       2 calls)
     hinit0       :     22.89s CPU     23.06s WALL (       2 calls)

     Called by electrons:
     c_bands      :    363.66s CPU    371.80s WALL (     142 calls)
     sum_band     :    167.05s CPU    244.28s WALL (     142 calls)
     v_of_rho     :     35.92s CPU     40.23s WALL (     150 calls)
     v_h          :      1.37s CPU      1.49s WALL (     150 calls)
     v_xc         :     38.64s CPU     43.49s WALL (     168 calls)
     newd         :    105.87s CPU    185.98s WALL (     150 calls)
     mix_rho      :      2.67s CPU      2.86s WALL (     142 calls)

     Called by c_bands:
     init_us_2    :      8.20s CPU      8.92s WALL (    3648 calls)
     init_us_2:cp :      8.19s CPU      8.91s WALL (    3648 calls)
     cegterg      :    345.55s CPU    353.25s WALL (    1704 calls)

     Called by sum_band:
     sum_band:wei :      0.01s CPU      0.01s WALL (     142 calls)
     sum_band:loo :     51.62s CPU     52.92s WALL (     142 calls)
     sum_band:buf :      0.41s CPU      0.43s WALL (    1704 calls)
     sum_band:ini :      3.61s CPU      3.72s WALL (    1704 calls)
     sum_band:cal :     13.19s CPU     13.49s WALL (    1704 calls)
     sum_band:bec :      0.04s CPU      0.04s WALL (    1704 calls)
     addusdens    :    113.05s CPU    188.66s WALL (     142 calls)
                                        0.00s GPU  (     142 calls)
     addusd:skk   :      0.24s CPU      0.27s WALL (     284 calls)
                                        0.00s GPU  (     284 calls)

     Called by *egterg:
     cdiaghg      :      1.64s CPU      1.77s WALL (    5980 calls)
     cegterg:over :     23.75s CPU     24.23s WALL (    4372 calls)
     cegterg:upda :     13.69s CPU     13.99s WALL (    4372 calls)
     cegterg:last :     31.13s CPU     31.75s WALL (    3393 calls)
     h_psi        :    232.30s CPU    237.72s WALL (    6100 calls)
     s_psi        :     33.16s CPU     33.83s WALL (    6100 calls)
     g_psi        :      1.07s CPU      1.11s WALL (    4372 calls)

     Called by h_psi:
     h_psi:calbec :     35.72s CPU     36.39s WALL (    6100 calls)
     vloc_psi     :    162.94s CPU    167.00s WALL (    6100 calls)
     add_vuspsi   :     32.91s CPU     33.58s WALL (    6100 calls)

     General routines
     calbec       :     53.17s CPU     54.23s WALL (    8344 calls)
     fft          :     10.55s CPU     11.27s WALL (    2165 calls)
     ffts         :      0.63s CPU      0.65s WALL (     292 calls)
     fftw         :    148.25s CPU    151.72s WALL (  178798 calls)
     interpolate  :      1.39s CPU      1.48s WALL (     150 calls)


     PWSCF        :  22m15.37s CPU  26m16.24s WALL


   This run was terminated on:  21:27:28   8Apr2026            

=------------------------------------------------------------------------------=
   JOB DONE.
=------------------------------------------------------------------------------=
